57
 energy: -81.182470716818 gnorm: 0.000027402509 xtb: 6.7.1 (edcfbbe)
C          -14.85064676350952       37.91769024813337       -3.43697322776929
C          -14.53831937078055       36.45797526938517       -3.74395940052883
C          -15.77491277267421       35.76761569343203       -4.30760568001795
N          -14.09331563258329       35.76618103640776       -2.50039373488815
C          -12.96231276918916       36.41619585843731       -1.79519242444310
C          -12.39527391353470       35.30182984012643       -0.93109028521489
C          -12.44056858512911       34.10954619115809       -1.88347427069226
C          -13.74934871424187       34.32538946622770       -2.66557654361056
C          -14.92282120308267       33.54161387022165       -2.04488434016222
O          -15.74702414659323       34.18259914683835       -1.38665296519611
N          -15.00187804098803       32.23268908149352       -2.24618086279109
C          -16.09476871787109       31.47832104524197       -1.65599177260391
C          -15.55495921499095       30.40624742891286       -0.71280292744524
C          -14.59031502736666       29.49171184158380       -1.47823199045727
C          -13.46642065807631       30.34060446382690       -2.06976388503192
C          -14.06931618422280       31.40808539223994       -2.98834422336082
N          -14.09705634243339       28.43804967942984       -0.61866725028979
C          -12.93200818883385       28.36831640699268        0.08589214243293
N          -12.80749887853498       27.29754807098351        0.81075965561215
C          -13.96583064896308       26.58602066379698        0.60139370807078
C          -14.78970155374441       27.30385694082607       -0.29628093466359
C          -16.02857882825985       26.76770904807332       -0.65104142734364
C          -17.15062996077954       27.09159122190388       -1.45628939591996
C          -18.03946055784804       26.06456872638546       -1.32075666442663
N          -17.53916652129752       25.11762388399522       -0.47739165207898
C          -16.31285242581760       25.51314475165751       -0.04596980795903
N          -15.54184081770458       24.82100346604889        0.79953443232218
C          -14.38172955203330       25.35446851267053        1.11921580605328
H          -13.63987631774346       34.09342005893896       -3.72376359941536
H          -17.99321256435496       24.26194472724588       -0.20615009016806
H          -13.71256882485849       36.40001677349327       -4.46010630659246
H          -14.91810783381048       35.71889822756803       -1.85136459248442
H          -12.22869409257954       36.73641194006226       -2.53639174931811
H          -13.30373689550364       37.27159423238334       -1.21889451799020
H          -13.03440491209948       35.12665748803659       -0.06530287580160
H          -11.39021762114827       35.51963708323414       -0.58228765853682
H          -11.58820925220997       34.13490735096183       -2.56078931210754
H          -12.43091680482495       33.16368914829224       -1.34960708559284
H          -16.73962327427326       32.17329817782372       -1.11750189218475
H          -16.66962434159839       31.01020158561976       -2.46023892876293
H          -15.02847506342523       30.87124945139609        0.12284200613748
H          -16.38389284755484       29.82558324081802       -0.30834099434849
H          -15.13446966395746       28.99556838790782       -2.29086568554792
H          -12.91334623402744       30.82470397836599       -1.26451830614723
H          -12.77772529542095       29.71654292355696       -2.63819603787108
H          -14.61814607625743       30.91788135157065       -3.79838184901257
H          -13.27142211896541       32.00712506020675       -3.41681060587807
H          -12.17273829054082       29.12165794785288        0.03960785291590
H          -17.29218076566033       27.96717241281473       -2.05616646668671
H          -19.00400743917582       25.94232927146991       -1.77195450015535
H          -13.76222393588017       24.79331505911426        1.80294729128600
H          -15.57633991588156       34.74966753513883       -4.62910476196454
H          -16.57098165269355       35.74659269857431       -3.56657232037016
H          -16.13359075917072       36.32017760251178       -5.17054095447092
H          -13.96719934823795       38.47304121526667       -3.13983416084879
H          -15.25048760274199       38.39192470362801       -4.32819428808935
H          -15.60182426029908       37.99349311572809       -2.65479768553085
