42
 energy: -67.911522024310 gnorm: 0.000034927272 xtb: 6.7.1 (edcfbbe)
C          -14.63474641588997       29.34995117554755       -3.05720689993138
C          -14.36963952081032       29.81316812986967       -1.62118355006192
C          -13.31748644692734       30.93533773346635       -1.60189259229373
C          -13.87383023652565       32.22173425393251       -2.21295111624833
N          -15.04592611369780       32.62845886611571       -1.47046318498435
C          -16.11785857300685       31.65855771585059       -1.49378570958753
C          -15.62083215975001       30.34534398860254       -0.89411166674688
S          -15.45491851649009       34.21867975388090       -1.50366805506504
O          -16.52322993745790       34.40924735675890       -0.54465347837196
O          -14.24495284016686       34.97963025427283       -1.27017952052065
C          -16.07698287445729       34.61353137642183       -3.14583855196955
N          -13.88166515863306       28.65412969069336       -0.87182734511310
C          -12.66479457495233       28.51006723954170       -0.27253331286820
N          -12.49798400269797       27.38464018055173        0.35067542922717
C          -13.67590512845671       26.70267908171936        0.17062050952857
C          -14.56376843255640       27.48919303851909       -0.60549943571928
C          -15.81861688834970       26.93943136181323       -0.91069048383016
C          -17.00416253305376       27.26246569481297       -1.62800997916683
C          -17.85471651286683       26.20352808401294       -1.49679863586849
N          -17.27713667753623       25.23065367191703       -0.74071589783668
C          -16.03667818956194       25.64011687820662       -0.36859318425482
N          -15.20474883714010       24.90239296941067        0.37252954476897
C          -14.03138490004082       25.43326147913630        0.63562699326124
H          -13.04184345709008       31.15373361509256       -0.56983457878845
H          -12.42774949728511       30.63648487383529       -2.15581600439871
H          -13.14807600180987       33.02959329950920       -2.11837118000671
H          -14.10967615782444       32.07065654197831       -3.27311121750743
H          -16.92711613672958       32.07007577835149       -0.89057185434129
H          -16.47894407479551       31.49764409715643       -2.51741188722625
H          -16.42274747008245       29.61236950906289       -0.91544103505798
H          -15.35172012444151       30.52064404473625        0.14930368942061
H          -11.89836178701394       29.25532936654437       -0.31442402783082
H          -17.22162557105593       28.15135341332417       -2.18420218468201
H          -18.84092209001622       26.07983661958006       -1.89747287096439
H          -13.34803481101445       24.84441908956335        1.22857806915750
H          -17.68225779529616       24.34427843757125       -0.49130841433978
H          -15.21048793840759       28.43056918368474       -3.06002256500464
H          -15.17730298443987       30.10012096173981       -3.62032152977765
H          -13.68848692608623       29.15530093553890       -3.55671415183235
H          -16.32575591177417       35.66556418124461       -3.13860482557549
H          -16.95770721188900       34.01157770627265       -3.31959527194656
H          -15.28881858392048       34.40994836916381       -3.85690803563066
