48
Energy -59.67858030506022 kcal/mol Converged!
  C    6.599641609  -0.445328857   1.423483114
  C    6.433744905   0.290958968   0.102581491
  C    7.104098592   1.661559782   0.085287551
  C    6.761180309  -0.556867296  -1.117511715
  O    4.990329920   0.727840517  -0.010370298
  C    3.970409053  -0.177084470  -0.025256946
  O    4.113829605  -1.396855199   0.026362936
  N    2.763553341   0.492603879  -0.076940758
  C    1.474176269  -0.241105893  -0.212855450
  C    0.721124468   0.200999573  -1.494209057
  C   -0.470060353   1.051206356  -1.027856611
  C   -0.797067295   0.560365193   0.402016839
  C    0.550413051   0.092507959   0.988919248
  N   -1.800297536  -0.543956400   0.346595901
  C   -1.548866700  -1.935049829   0.230246857
  N   -2.682626206  -2.644645238   0.064755970
  C   -3.725502750  -1.705841656   0.037647614
  C   -3.182163268  -0.383239543   0.197839720
  C   -4.060967674   0.718511237   0.179055005
  C   -3.980378148   2.138929578   0.270026658
  C   -5.276086495   2.635836936   0.163905829
  N   -6.180237381   1.574551752   0.005587428
  C   -5.455110885   0.381526086   0.008546328
  N   -5.991731470  -0.893216386  -0.138668373
  C   -5.128857393  -1.910103145  -0.125133521
  H    2.747375538   1.512370760  -0.171514060
  H    1.702460092  -1.338761793  -0.246196422
  H    1.376748660   0.778170125  -2.184468162
  H    0.357632569  -0.703654325  -2.036572249
  H   -1.339750763   0.949428845  -1.713204725
  H   -0.183048674   2.129638719  -0.979842805
  H   -1.245901715   1.372891731   1.031336708
  H    0.444512908  -0.778077560   1.673122247
  H    0.982119453   0.932210815   1.592409430
  H   -0.550194691  -2.360897420   0.285909334
  H   -3.083985167   2.718341267   0.391011623
  H   -5.614196238   3.664066608   0.189452252
  H   -5.528423900  -2.928848227  -0.246880046
  H   -7.185103755   1.654329569  -0.097850931
  H    8.209328483   1.536168060   0.156495842
  H    6.753567197   2.277176033   0.945415245
  H    6.860895907   2.201626558  -0.858653002
  H    6.027489312  -1.403083654   1.408044252
  H    6.226935230   0.178836985   2.267171465
  H    7.677219182  -0.673320120   1.594427398
  H    7.849775876  -0.795723852  -1.128935226
  H    6.183793283  -1.511316844  -1.091994026
  H    6.503903644  -0.009476183  -2.052639905
