      -----------------------------------------------------------      
     |                   =====================                   |     
     |                           x T B                           |     
     |                   =====================                   |     
     |                         S. Grimme                         |     
     |          Mulliken Center for Theoretical Chemistry        |     
     |                    University of Bonn                     |     
      -----------------------------------------------------------      

   * xtb version 6.7.1 (edcfbbe) compiled by 'conda@c0858423619e' on 2025-09-04

   xtb is free software: you can redistribute it and/or modify it under
   the terms of the GNU Lesser General Public License as published by
   the Free Software Foundation, either version 3 of the License, or
   (at your option) any later version.
   
   xtb is distributed in the hope that it will be useful,
   but WITHOUT ANY WARRANTY; without even the implied warranty of
   MERCHANTABILITY or FITNESS FOR A PARTICULAR PURPOSE.  See the
   GNU Lesser General Public License for more details.
   
   Cite this work as:
   * C. Bannwarth, E. Caldeweyher, S. Ehlert, A. Hansen, P. Pracht,
     J. Seibert, S. Spicher, S. Grimme, WIREs Comput. Mol. Sci., 2020, 11,
     e01493. DOI: 10.1002/wcms.1493
   
   for GFN2-xTB:
   * C. Bannwarth, S. Ehlert and S. Grimme., J. Chem. Theory Comput., 2019,
     15, 1652-1671. DOI: 10.1021/acs.jctc.8b01176
   for GFN1-xTB:
   * S. Grimme, C. Bannwarth, P. Shushkov, J. Chem. Theory Comput., 2017,
     13, 1989-2009. DOI: 10.1021/acs.jctc.7b00118
   for GFN0-xTB:
   * P. Pracht, E. Caldeweyher, S. Ehlert, S. Grimme, ChemRxiv, 2019, preprint.
     DOI: 10.26434/chemrxiv.8326202.v1
   for GFN-FF:
   * S. Spicher and S. Grimme, Angew. Chem. Int. Ed., 2020, 59, 15665-15673.
     DOI: 10.1002/anie.202004239
   
   for ALPB and GBSA implicit solvation:
   * S. Ehlert, M. Stahn, S. Spicher, S. Grimme, J. Chem. Theory Comput.,
     2021, 17, 4250-4261. DOI: 10.1021/acs.jctc.1c00471
   
   for ddCOSMO and CPCM-X implicit solvation:
   * M. Stahn, S. Ehlert, S. Grimme, J. Phys. Chem. A,
     2023, XX, XXXX-XXXX. DOI: 10.1021/acs.jpca.3c04382
   
   for DFT-D4:
   * E. Caldeweyher, C. Bannwarth and S. Grimme, J. Chem. Phys., 2017,
     147, 034112. DOI: 10.1063/1.4993215
   * E. Caldeweyher, S. Ehlert, A. Hansen, H. Neugebauer, S. Spicher,
     C. Bannwarth and S. Grimme, J. Chem. Phys., 2019, 150, 154122.
     DOI: 10.1063/1.5090222
   * E. Caldeweyher, J.-M. Mewes, S. Ehlert and S. Grimme, Phys. Chem. Chem. Phys.
     2020, 22, 8499-8512. DOI: 10.1039/D0CP00502A
   
   for sTDA-xTB:
   * S. Grimme and C. Bannwarth, J. Chem. Phys., 2016, 145, 054103.
     DOI: 10.1063/1.4959605
   
   in the mass-spec context:
   * V. Asgeirsson, C. Bauer and S. Grimme, Chem. Sci., 2017, 8, 4879.
     DOI: 10.1039/c7sc00601b
   * J. Koopman and S. Grimme, ACS Omega 2019, 4, 12, 15120-15133.
     DOI: 10.1021/acsomega.9b02011
   
   for metadynamics refer to:
   * S. Grimme, J. Chem. Theory Comput., 2019, 155, 2847-2862
     DOI: 10.1021/acs.jctc.9b00143
   
   for SPH calculations refer to:
   * S. Spicher and S. Grimme, J. Chem. Theory Comput., 2021, 17, 1701-1714
     DOI: 10.1021/acs.jctc.0c01306
   
   for ONIOM refer to:
   * C. Plett, A. Katbashev, S. Ehlert, S. Grimme, M. Bursch,
     Phys. Chem. Chem. Phys., 2023, 25, 17860-17868. DOI: 10.1039/D3CP02178E
   
   for DIPRO refer to:
   * J. Kohn, N. Gildemeister, S. Grimme, D. Fazzi, A. Hansen,
     J. Chem. Phys., 2023, just accepted.
   
   for PTB refer to:
   * S. Grimme, M. Mueller, A. Hansen, J. Chem. Phys., 2023, 158, 124111.
     DOI: 10.1063/5.0137838
   
   with help from (in alphabetical order)
   P. Atkinson, C. Bannwarth, F. Bohle, G. Brandenburg, E. Caldeweyher
   M. Checinski, S. Dohm, S. Ehlert, S. Ehrlich, I. Gerasimov, C. Hölzer
   A. Katbashev, J. Kohn, J. Koopman, C. Lavigne, S. Lehtola, F. März, M. Müller,
   F. Musil, H. Neugebauer, J. Pisarek, C. Plett, P. Pracht, F. Pultar,
   J. Seibert, P. Shushkov, S. Spicher, M. Stahn, M. Steiner, T. Strunk,
   J. Stückrath, T. Rose, and J. Unsleber
   
 * started run on 2026/04/27 at 12:57:51.187     
   ID    Z sym.   atoms
    1    6 C      1-4, 6, 7, 11, 13, 15-19, 21, 23
    2    7 N      5, 12, 14, 20, 22
    3   16 S      8
    4    8 O      9, 10
    5    1 H      24-42

           -------------------------------------------------
          |                Calculation Setup                |
           -------------------------------------------------

          program call               : xtb /home/vranova/Crest-on-PL-REX-dataset/data/01_data/batch_1_results/007-JAK1__4E4L/crest2/crest_best.xyz --opt vtight --cycles 500 --gfn2 --alpb h2o --chrg 0
          hostname                   : d049
          coordinate file            : /home/vranova/Crest-on-PL-REX-dataset/data/01_data/batch_1_results/007-JAK1__4E4L/crest2/crest_best.xyz
          omp threads                :                     1


           -------------------------------------------------
          |                 G F N 2 - x T B                 |
           -------------------------------------------------

        Reference                      10.1021/acs.jctc.8b01176
      * Hamiltonian:
        H0-scaling (s, p, d)           1.850000    2.230000    2.230000
        zeta-weighting                 0.500000
      * Dispersion:
        s8                             2.700000
        a1                             0.520000
        a2                             5.000000
        s9                             5.000000
      * Repulsion:
        kExp                           1.500000    1.000000
        rExp                           1.000000
      * Coulomb:
        alpha                          2.000000
        third order                    shell-resolved
        anisotropic                    true
        a3                             3.000000
        a5                             4.000000
        cn-shift                       1.200000
        cn-exp                         4.000000
        max-rad                        5.000000

      * Solvation model:               ALPB
        Solvent                        h2o
        Parameter file                 internal GFN2-xTB/ALPB
        Dielectric constant                8.0200E+01
        Reference state                gsolv [1 M gas/solution]
        Free energy shift                  1.0808E-03 Eh       6.7819E-01 kcal/mol
        Temperature                        2.9815E+02 K
        Density                            1.0000E+00 kg/L
        Solvent mass                       1.8000E+01 g/mol
        Interaction kernel             P16
        Born radius scaling (c1)           1.4744E+00
        Born radii integrator          GBOBC
        Born offset                        0.0000E+00 a0       0.0000E+00 AA
        H-bond correction              true
        Ion screening                  false
        Surface tension                    1.0000E-05 Eh       1.5569E+01 dyn/cm
        Grid points                               230 per atom

          ...................................................
          :                      SETUP                      :
          :.................................................:
          :  # basis functions                 117          :
          :  # atomic orbitals                 116          :
          :  # shells                           66          :
          :  # electrons                       122          :
          :  max. iterations                   250          :
          :  Hamiltonian                  GFN2-xTB          :
          :  restarted?                      false          :
          :  GBSA solvation                   true          :
          :  PC potential                    false          :
          :  electronic temp.          300.0000000     K    :
          :  accuracy                    1.0000000          :
          :  -> integral cutoff          0.2500000E+02      :
          :  -> integral neglect         0.1000000E-07      :
          :  -> SCF convergence          0.1000000E-05 Eh   :
          :  -> wf. convergence          0.1000000E-03 e    :
          :  Broyden damping             0.4000000          :
          :  net charge                          0          :
          :  unpaired electrons                  0          :
          ...................................................

 iter      E             dE          RMSdq      gap      omega  full diag
   1    -68.6248487 -0.686248E+02  0.449E+00    2.79       0.0  T
   2    -68.7747933 -0.149945E+00  0.289E+00    3.43       1.0  T
   3    -68.7849484 -0.101551E-01  0.146E+00    3.43       1.0  T
   4    -68.7890462 -0.409780E-02  0.373E-01    3.34       1.0  T
   5    -68.7914314 -0.238523E-02  0.183E-01    3.37       1.0  T
   6    -68.7915629 -0.131481E-03  0.109E-01    3.37       1.0  T
   7    -68.7916474 -0.844506E-04  0.499E-02    3.37       1.0  T
   8    -68.7916643 -0.169180E-04  0.255E-02    3.38       1.0  T
   9    -68.7916691 -0.479581E-05  0.746E-03    3.37       2.1  T
  10    -68.7916698 -0.724486E-06  0.323E-03    3.38       4.8  T
  11    -68.7916698 -0.214804E-07  0.106E-03    3.38      14.5  T
  12    -68.7916698 -0.123947E-07  0.367E-04    3.38      42.0  T
  13    -68.7916698 -0.120602E-08  0.203E-04    3.38      76.0  T

   *** convergence criteria satisfied after 13 iterations ***

         #    Occupation            Energy/Eh            Energy/eV
      -------------------------------------------------------------
         1        2.0000           -0.7909234             -21.5221
       ...           ...                  ...                  ...
        55        2.0000           -0.4309531             -11.7268
        56        2.0000           -0.4157341             -11.3127
        57        2.0000           -0.3954421             -10.7605
        58        2.0000           -0.3873219             -10.5396
        59        2.0000           -0.3808803             -10.3643
        60        2.0000           -0.3744712             -10.1899
        61        2.0000           -0.3727985             -10.1444 (HOMO)
        62                         -0.2487663              -6.7693 (LUMO)
        63                         -0.2185749              -5.9477
        64                         -0.1806807              -4.9166
        65                         -0.1597985              -4.3483
        66                         -0.1370404              -3.7291
       ...                                ...                  ...
       116                          1.1573098              31.4920
      -------------------------------------------------------------
                  HL-Gap            0.1240322 Eh            3.3751 eV
             Fermi-level           -0.3107824 Eh           -8.4568 eV

 SCC (total)                   0 d,  0 h,  0 min,  0.048 sec
 SCC setup                      ...        0 min,  0.001 sec (  1.944%)
 Dispersion                     ...        0 min,  0.000 sec (  0.829%)
 classical contributions        ...        0 min,  0.000 sec (  0.177%)
 integral evaluation            ...        0 min,  0.007 sec ( 13.805%)
 iterations                     ...        0 min,  0.024 sec ( 49.607%)
 molecular gradient             ...        0 min,  0.016 sec ( 33.289%)
 printout                       ...        0 min,  0.000 sec (  0.328%)

         :::::::::::::::::::::::::::::::::::::::::::::::::::::
         ::                     SUMMARY                     ::
         :::::::::::::::::::::::::::::::::::::::::::::::::::::
         :: total energy             -67.915664979972 Eh    ::
         :: total w/o Gsasa/hb       -67.905384193485 Eh    ::
         :: gradient norm              0.000053360216 Eh/a0 ::
         :: HOMO-LUMO gap              3.375087963610 eV    ::
         ::.................................................::
         :: SCC energy               -68.790724134616 Eh    ::
         :: -> isotropic ES            0.133952895390 Eh    ::
         :: -> anisotropic ES         -0.009708815687 Eh    ::
         :: -> anisotropic XC          0.033404466004 Eh    ::
         :: -> dispersion             -0.054491604333 Eh    ::
         :: -> Gsolv                  -0.045007571907 Eh    ::
         ::    -> Gelec               -0.034726785420 Eh    ::
         ::    -> Gsasa               -0.004066938893 Eh    ::
         ::    -> Ghb                 -0.007294607292 Eh    ::
         ::    -> Gshift               0.001080759698 Eh    ::
         :: repulsion energy           0.875059154644 Eh    ::
         :: add. restraining           0.000000000000 Eh    ::
         :: total charge               0.000000000000 e     ::
         :::::::::::::::::::::::::::::::::::::::::::::::::::::

      ----------------------------------------------------------- 
     |                   =====================                   |
     |                        A N C O P T                        |
     |                   =====================                   |
     |               Approximate Normal Coordinate               |
     |                Rational Function Optimizer                |
      ----------------------------------------------------------- 
      ----------------------------------------------------------- 
     |                   =====================                   |
     |                        A N C O P T                        |
     |                   =====================                   |
     |               Approximate Normal Coordinate               |
     |                Rational Function Optimizer                |
      ----------------------------------------------------------- 

          ...................................................
          :                      SETUP                      :
          :.................................................:
          :   optimization level         verytight          :
          :   max. optcycles                   500          :
          :   ANC micro-cycles                  20          :
          :   degrees of freedom               120          :
          :.................................................:
          :   RF solver                   davidson          :
          :   write xtbopt.log                true          :
          :   linear?                        false          :
          :   energy convergence         0.1000000E-06 Eh   :
          :   grad. convergence          0.2000000E-03 Eh/α :
          :   maxmium RF displ.          1.0000000          :
          :   Hlow (freq-cutoff)         0.1000000E-01      :
          :   Hmax (freq-cutoff)         5.0000000          :
          :   S6 in model hess.         20.0000000          :
          ...................................................

generating ANC from exact Hessian ...
Using Lindh-Hessian (1995)
 Shifting diagonal of input Hessian by    9.3341263145116996E-003
 Lowest  eigenvalues of input Hessian
    0.000000    0.000000    0.000000    0.000000    0.000000    0.000000
    0.010000    0.010012    0.010591    0.012565    0.013543    0.013816
    0.015764    0.016408    0.016439    0.018539    0.019700    0.021262
 Highest eigenvalues
    2.121895    2.153807    2.201916    2.300616    2.661942    3.336502


........................................................................
.............................. CYCLE    1 ..............................
........................................................................

 iter      E             dE          RMSdq      gap      omega  full diag
   1    -68.7916698 -0.687917E+02  0.696E-05    3.38       0.0  T
   2    -68.7916698 -0.319034E-10  0.458E-05    3.38     336.7  T
   3    -68.7916698 -0.926548E-11  0.310E-05    3.38     497.4  T
     SCC iter.                  ...        0 min,  0.006 sec
     gradient                   ...        0 min,  0.016 sec
 * total energy  :   -67.9156650 Eh     change       -0.2917488E-09 Eh
   gradient norm :     0.0000531 Eh/α   predicted     0.0000000E+00 (-100.00%)
   displ. norm   :     0.0000796 α      lambda        0.0000000E+00
   maximum displ.:     0.0000310 α      in ANC's #38, #24, #117, ...

   *** GEOMETRY OPTIMIZATION CONVERGED AFTER 1 ITERATIONS ***

------------------------------------------------------------------------
 total energy gain   :        -0.0000000 Eh       -0.0000 kcal/mol
 total RMSD          :         0.0000000 a0        0.0000 Å
 total power (kW/mol):        -0.0000008 (step)   -0.0000 (real)
------------------------------------------------------------------------

 ANCopt (total)                0 d,  0 h,  0 min,  0.051 sec
 optimizer setup                ...        0 min,  0.000 sec (  0.194%)
 model hessian                  ...        0 min,  0.020 sec ( 38.957%)
 ANC generation                 ...        0 min,  0.001 sec (  2.188%)
 coordinate transformation      ...        0 min,  0.000 sec (  0.013%)
 single point calculation       ...        0 min,  0.029 sec ( 57.898%)
 optimization log               ...        0 min,  0.000 sec (  0.131%)
 hessian update                 ...        0 min,  0.000 sec (  0.002%)
 rational function              ...        0 min,  0.000 sec (  0.064%)

================
 final structure:
================
42
 xtb: 6.7.1 (edcfbbe)
C           -0.19015548350000       -3.41836861480000        0.00148587430000
C            0.00046251900000       -1.90063397550000        0.00073738090000
C           -0.63562036850000       -1.29220538430000       -1.26159993340000
C           -2.16350039720000       -1.36684026080000       -1.22109813200000
N           -2.71281512440000       -0.81831631970000        0.00017662730000
C           -2.16353327120000       -1.36561222300000        1.22202882120000
C           -0.63560387030000       -1.29123621540000        1.26260726530000
S           -3.17591789500000        0.77324940380000       -0.00064468520000
O           -2.75212790420000        1.41618008680000        1.22911955840000
O           -2.75234914140000        1.41474610770000       -1.23122777910000
C           -4.96287944160000        0.65679549740000       -0.00031919280000
N            1.43142058760000       -1.58481813420000        0.00040598380000
C            2.45184368870000       -2.49275472920000       -0.00035264160000
N            3.64027783960000       -1.97545919370000       -0.00106046950000
C            3.43409043360000       -0.61933949320000       -0.00081652870000
C            2.04068080820000       -0.34961886450000        0.00001399570000
C            1.64835744510000        0.99903430090000        0.00033887230000
C            0.46462125900000        1.78875203550000        0.00082088740000
C            0.85434490130000        3.09641256110000        0.00116617860000
N            2.21264586830000        3.18200507560000        0.00075815610000
C            2.73128001200000        1.92666145180000        0.00013299920000
N            4.04216254920000        1.67116480210000       -0.00058200030000
C            4.38668232260000        0.40261610430000       -0.00109955860000
H           -0.34314628280000       -0.24617877560000       -1.35103176950000
H           -0.27159591590000       -1.81900004320000       -2.14487109190000
H           -2.57413391980000       -0.78165904810000       -2.04308787860000
H           -2.50779855830000       -2.39966508420000       -1.31052523590000
H           -2.57410341700000       -0.77952164540000        2.04340355690000
H           -2.50800708560000       -2.39828724500000        1.31251554940000
H           -0.27177289360000       -1.81755044070000        2.14624811120000
H           -0.34288094200000       -0.24525098200000        1.35144325010000
H            2.29795470990000       -3.55069056590000       -0.00030378940000
H           -0.55887610720000        1.46998516770000        0.00084709470000
H            0.23870423200000        3.97346214860000        0.00161934630000
H            5.44285567660000        0.18069502240000       -0.00156922690000
H            2.76152501470000        4.02524955120000        0.00092350220000
H            0.25232244470000       -3.86262609870000       -0.88602190460000
H            0.25336940180000       -3.86179668970000        0.88889317980000
H           -1.24885460570000       -3.65105415010000        0.00221045410000
H           -5.35870344980000        1.66338650360000        0.00130504380000
H           -5.25077685950000        0.12276344300000        0.89381472070000
H           -5.25134987060000        0.12543910030000       -0.89586298800000

 Bond Distances (Angstroems)
 ---------------------------
C1-C2=1.5297         C1-H37=1.0867        C1-H38=1.0867        C1-H39=1.0840        C2-C1=1.5297         C2-C3=1.5389         
C2-C7=1.5389         C2-N12=1.4654        C3-C2=1.5389         C3-C4=1.5302         C3-H24=1.0898        C3-H25=1.0910        
C4-C3=1.5302         C4-N5=1.4471         C4-H26=1.0894        C4-H27=1.0924        N5-C4=1.4471         N5-C6=1.4471         
N5-S8=1.6576         C6-N5=1.4471         C6-C7=1.5303         C6-H28=1.0894        C6-H29=1.0924        C7-C2=1.5389         
C7-C6=1.5303         C7-H30=1.0910        C7-H31=1.0898        S8-N5=1.6576         S8-O9=1.4510         S8-O10=1.4510        
S8-C11=1.7908        O9-S8=1.4510         O10-S8=1.4510        C11-S8=1.7908        C11-H40=1.0816       C11-H41=1.0805       
C11-H42=1.0805       N12-C2=1.4654        N12-C13=1.3659       N12-C16=1.3773       C13-N12=1.3659       C13-N14=1.2961       
C13-H32=1.0691       N14-C13=1.2961       N14-C15=1.3717       C15-N14=1.3717       C15-C16=1.4193       C15-C23=1.3971       
C16-N12=1.3773       C16-C15=1.4193       C16-C17=1.4046       C17-C16=1.4046       C17-C18=1.4230       C17-C21=1.4259       
C18-C17=1.4230       C18-C19=1.3645       C18-H33=1.0720       C19-C18=1.3645       C19-N20=1.3610       C19-H34=1.0716       
N20-C19=1.3610       N20-C21=1.3583       N20-H36=1.0061       C21-C17=1.4259       C21-N20=1.3583       C21-N22=1.3355       
N22-C21=1.3355       N22-C23=1.3145       C23-C15=1.3971       C23-N22=1.3145       C23-H35=1.0792       H24-C3=1.0898        
H25-C3=1.0910        H26-C4=1.0894        H27-C4=1.0924        H28-C6=1.0894        H29-C6=1.0924        H30-C7=1.0910        
H31-C7=1.0898        H32-C13=1.0691       H33-C18=1.0720       H34-C19=1.0716       H35-C23=1.0792       H36-N20=1.0061       
H37-C1=1.0867        H38-C1=1.0867        H39-C1=1.0840        H40-C11=1.0816       H41-C11=1.0805       H42-C11=1.0805       
 C  H  Rav=1.0843 sigma=0.0073  Rmin=1.0691  Rmax=1.0924    18
 C  C  Rav=1.4638 sigma=0.0656  Rmin=1.3645  Rmax=1.5389    11
 N  H  Rav=1.0061 sigma=0.0000  Rmin=1.0061  Rmax=1.0061     1
 N  C  Rav=1.3764 sigma=0.0527  Rmin=1.2961  Rmax=1.4654    11
 S  C  Rav=1.7908 sigma=0.0000  Rmin=1.7908  Rmax=1.7908     1
 S  N  Rav=1.6576 sigma=0.0000  Rmin=1.6576  Rmax=1.6576     1
 S  O  Rav=1.4510 sigma=0.0000  Rmin=1.4510  Rmax=1.4510     2

 selected bond angles (degree)
 --------------------
H37-C1-C2=110.76               H38-C1-C2=110.76               H38-C1-H37=109.51              H39-C1-C2=109.55               
H39-C1-H37=108.09              H39-C1-H38=108.09              C3-C2-C1=109.95                C7-C2-C1=109.94                
C7-C2-C3=110.19                N12-C2-C1=109.60               N12-C2-C3=108.56               N12-C2-C7=108.57               
C4-C3-C2=111.82                H24-C3-C2=109.62               H24-C3-C4=108.48               H25-C3-C2=109.59               
H25-C3-C4=109.33               H25-C3-H24=107.91              N5-C4-C3=112.51                H26-C4-C3=109.28               
H26-C4-N5=106.86               H27-C4-C3=111.02               H27-C4-N5=107.93               H27-C4-H26=109.11              
C6-N5-C4=115.16                S8-N5-C4=118.01                S8-N5-C6=118.01                C7-C6-N5=112.52                
H28-C6-N5=106.86               H28-C6-C7=109.28               H29-C6-N5=107.93               H29-C6-C7=111.02               
H29-C6-H28=109.11              C6-C7-C2=111.82                H30-C7-C2=109.59               H30-C7-C6=109.33               
H31-C7-C2=109.63               H31-C7-C6=108.48               H31-C7-H30=107.90              O9-S8-N5=110.09                
O10-S8-N5=110.08               O10-S8-O9=115.95               C11-S8-N5=102.49               C11-S8-O9=108.67               
C11-S8-O10=108.68              

 selected dihedral angles (degree)
 ---------------------------------
C3-C2-C1-H37= 58.37           C3-C2-C1-H38=180.08           C3-C2-C1-H39=299.22           C7-C2-C1-H37=179.86           
C7-C2-C1-H38=301.57           C7-C2-C1-H39= 60.71           N12-C2-C1-H37=299.12          N12-C2-C1-H38= 60.83          
N12-C2-C1-H39=179.97          C4-C3-C2-C1= 69.92            C4-C3-C2-C7=308.58            C4-C3-C2-N12=189.81           
H24-C3-C2-C1=190.26           H24-C3-C2-C7= 68.93           H24-C3-C2-N12=310.15          H25-C3-C2-C1=308.52           
H25-C3-C2-C7=187.19           H25-C3-C2-N12= 68.41          N5-C4-C3-C2= 52.02            N5-C4-C3-H24=291.00           
N5-C4-C3-H25=173.56           H26-C4-C3-C2=170.55           H26-C4-C3-H24= 49.54          H26-C4-C3-H25=292.10          
H27-C4-C3-C2=290.94           H27-C4-C3-H24=169.92          H27-C4-C3-H25= 52.49          C6-N5-C4-C3=306.81            
C6-N5-C4-H26=186.86           C6-N5-C4-H27= 69.63           S8-N5-C4-C3= 93.68            S8-N5-C4-H26=333.74           
S8-N5-C4-H27=216.51           C7-C6-N5-C4= 53.18            C7-C6-N5-S8=266.31            H28-C6-N5-C4=173.13           
H28-C6-N5-S8= 26.26           H29-C6-N5-C4=290.36           H29-C6-N5-S8=143.48           C6-C7-C2-C1=290.06            
C6-C7-C2-C3= 51.40            C6-C7-C2-N12=170.17           H30-C7-C2-C1= 51.46           H30-C7-C2-C3=172.80           
H30-C7-C2-N12=291.57          H31-C7-C2-C1=169.71           H31-C7-C2-C3=291.05           H31-C7-C2-N12= 49.82          
C2-C7-C6-N5=308.01            C2-C7-C6-H28=189.47           C2-C7-C6-H29= 69.08           H30-C7-C6-N5=186.46           
H30-C7-C6-H28= 67.92          H30-C7-C6-H29=307.54          H31-C7-C6-N5= 69.02           H31-C7-C6-H28=310.49          
H31-C7-C6-H29=190.10          O9-S8-N5-C4=222.52            O9-S8-N5-C6=  8.45            O10-S8-N5-C4=351.56           
O10-S8-N5-C6=137.49           C11-S8-N5-C4=107.05           C11-S8-N5-C6=252.97           
           -------------------------------------------------
          |                Final Singlepoint                |
           -------------------------------------------------

          ...................................................
          :                      SETUP                      :
          :.................................................:
          :  # basis functions                 117          :
          :  # atomic orbitals                 116          :
          :  # shells                           66          :
          :  # electrons                       122          :
          :  max. iterations                   250          :
          :  Hamiltonian                  GFN2-xTB          :
          :  restarted?                      false          :
          :  GBSA solvation                   true          :
          :  PC potential                    false          :
          :  electronic temp.          300.0000000     K    :
          :  accuracy                    1.0000000          :
          :  -> integral cutoff          0.2500000E+02      :
          :  -> integral neglect         0.1000000E-07      :
          :  -> SCF convergence          0.1000000E-05 Eh   :
          :  -> wf. convergence          0.1000000E-03 e    :
          :  Broyden damping             0.4000000          :
          :  net charge                          0          :
          :  unpaired electrons                  0          :
          ...................................................

 iter      E             dE          RMSdq      gap      omega  full diag
   1    -68.7916698 -0.687917E+02  0.752E-06    3.38       0.0  T
   2    -68.7916698 -0.213163E-12  0.481E-06    3.38    3210.0  T
   3    -68.7916698  0.000000E+00  0.329E-06    3.38    4694.5  T

   *** convergence criteria satisfied after 3 iterations ***

         #    Occupation            Energy/Eh            Energy/eV
      -------------------------------------------------------------
         1        2.0000           -0.7909246             -21.5222
       ...           ...                  ...                  ...
        55        2.0000           -0.4309533             -11.7268
        56        2.0000           -0.4157338             -11.3127
        57        2.0000           -0.3954427             -10.7605
        58        2.0000           -0.3873218             -10.5396
        59        2.0000           -0.3808799             -10.3643
        60        2.0000           -0.3744709             -10.1899
        61        2.0000           -0.3727985             -10.1444 (HOMO)
        62                         -0.2487663              -6.7693 (LUMO)
        63                         -0.2185743              -5.9477
        64                         -0.1806805              -4.9166
        65                         -0.1597981              -4.3483
        66                         -0.1370412              -3.7291
       ...                                ...                  ...
       116                          1.1573103              31.4920
      -------------------------------------------------------------
                  HL-Gap            0.1240322 Eh            3.3751 eV
             Fermi-level           -0.3107824 Eh           -8.4568 eV

 SCC (total)                   0 d,  0 h,  0 min,  0.029 sec
 SCC setup                      ...        0 min,  0.001 sec (  2.736%)
 Dispersion                     ...        0 min,  0.000 sec (  0.953%)
 classical contributions        ...        0 min,  0.000 sec (  0.285%)
 integral evaluation            ...        0 min,  0.006 sec ( 20.015%)
 iterations                     ...        0 min,  0.006 sec ( 21.022%)
 molecular gradient             ...        0 min,  0.016 sec ( 54.398%)
 printout                       ...        0 min,  0.000 sec (  0.554%)

         :::::::::::::::::::::::::::::::::::::::::::::::::::::
         ::                     SUMMARY                     ::
         :::::::::::::::::::::::::::::::::::::::::::::::::::::
         :: total energy             -67.915664980273 Eh    ::
         :: total w/o Gsasa/hb       -67.905384069155 Eh    ::
         :: gradient norm              0.000053423949 Eh/a0 ::
         :: HOMO-LUMO gap              3.375086909291 eV    ::
         ::.................................................::
         :: SCC energy               -68.790724134916 Eh    ::
         :: -> isotropic ES            0.133953510756 Eh    ::
         :: -> anisotropic ES         -0.009709541144 Eh    ::
         :: -> anisotropic XC          0.033404726502 Eh    ::
         :: -> dispersion             -0.054491614682 Eh    ::
         :: -> Gsolv                  -0.045008463803 Eh    ::
         ::    -> Gelec               -0.034727552685 Eh    ::
         ::    -> Gsasa               -0.004066938893 Eh    ::
         ::    -> Ghb                 -0.007294731923 Eh    ::
         ::    -> Gshift               0.001080759698 Eh    ::
         :: repulsion energy           0.875059154644 Eh    ::
         :: add. restraining           0.000000000000 Eh    ::
         :: total charge              -0.000000000000 e     ::
         :::::::::::::::::::::::::::::::::::::::::::::::::::::

           -------------------------------------------------
          |                Property Printout                |
           -------------------------------------------------

    * Orbital Energies and Occupations

         #    Occupation            Energy/Eh            Energy/eV
      -------------------------------------------------------------
         1        2.0000           -0.7909246             -21.5222
       ...           ...                  ...                  ...
        49        2.0000           -0.4600247             -12.5179
        50        2.0000           -0.4573306             -12.4446
        51        2.0000           -0.4541729             -12.3587
        52        2.0000           -0.4489786             -12.2173
        53        2.0000           -0.4440230             -12.0825
        54        2.0000           -0.4372417             -11.8980
        55        2.0000           -0.4309533             -11.7268
        56        2.0000           -0.4157338             -11.3127
        57        2.0000           -0.3954427             -10.7605
        58        2.0000           -0.3873218             -10.5396
        59        2.0000           -0.3808799             -10.3643
        60        2.0000           -0.3744709             -10.1899
        61        2.0000           -0.3727985             -10.1444 (HOMO)
        62                         -0.2487663              -6.7693 (LUMO)
        63                         -0.2185743              -5.9477
        64                         -0.1806805              -4.9166
        65                         -0.1597981              -4.3483
        66                         -0.1370412              -3.7291
        67                         -0.1056892              -2.8760
        68                         -0.0806970              -2.1959
        69                         -0.0787553              -2.1430
        70                         -0.0729508              -1.9851
        71                         -0.0312575              -0.8506
        72                          0.0305258               0.8306
       ...                                ...                  ...
       116                          1.1573103              31.4920
      -------------------------------------------------------------
                  HL-Gap            0.1240322 Eh            3.3751 eV
             Fermi-level           -0.3107824 Eh           -8.4568 eV

     #   Z          covCN         q      C6AA      α(0)
     1   6 C        3.759    -0.138    23.205     6.868
     2   6 C        3.837     0.079    19.237     6.240
     3   6 C        3.808    -0.078    21.989     6.675
     4   6 C        3.826    -0.007    20.686     6.472
     5   7 N        2.732    -0.275    27.098     7.731
     6   6 C        3.826    -0.007    20.686     6.472
     7   6 C        3.808    -0.078    21.990     6.675
     8  16 S        3.773     1.158   102.247    17.019
     9   8 O        0.860    -0.660    27.646     7.050
    10   8 O        0.860    -0.660    27.647     7.050
    11   6 C        3.748    -0.241    25.409     7.190
    12   7 N        2.820    -0.050    22.202     6.998
    13   6 C        3.179     0.094    25.526     8.249
    14   7 N        1.877    -0.319    29.116     7.999
    15   6 C        3.220     0.036    26.498     8.370
    16   6 C        3.095     0.032    27.168     8.543
    17   6 C        3.095    -0.047    29.057     8.835
    18   6 C        3.014    -0.081    30.005     8.985
    19   6 C        3.042    -0.002    28.024     8.683
    20   7 N        2.779    -0.118    23.561     7.209
    21   6 C        3.115     0.117    25.278     8.236
    22   7 N        1.835    -0.294    28.473     7.907
    23   6 C        2.915     0.036    27.195     8.551
    24   1 H        0.925     0.046     2.376     2.411
    25   1 H        0.924     0.064     2.153     2.294
    26   1 H        0.925     0.064     2.147     2.291
    27   1 H        0.924     0.084     1.939     2.178
    28   1 H        0.925     0.064     2.147     2.291
    29   1 H        0.924     0.084     1.939     2.178
    30   1 H        0.924     0.064     2.152     2.294
    31   1 H        0.925     0.046     2.376     2.410
    32   1 H        0.927     0.065     2.146     2.291
    33   1 H        0.926     0.018     2.764     2.600
    34   1 H        0.926     0.050     2.313     2.379
    35   1 H        0.926     0.045     2.387     2.416
    36   1 H        0.860     0.232     0.956     1.532
    37   1 H        0.925     0.063     2.168     2.303
    38   1 H        0.925     0.063     2.168     2.302
    39   1 H        0.925     0.077     2.013     2.219
    40   1 H        0.926     0.122     1.599     1.977
    41   1 H        0.926     0.127     1.556     1.951
    42   1 H        0.926     0.127     1.556     1.951

 Mol. C6AA /au·bohr⁶  :      21714.775463
 Mol. C8AA /au·bohr⁸  :     534270.702833
 Mol. α(0) /au        :        226.272310


Wiberg/Mayer (AO) data.
largest (>0.10) Wiberg bond orders for each atom

 ---------------------------------------------------------------------------
     #   Z sym  total        # sym  WBO       # sym  WBO       # sym  WBO
 ---------------------------------------------------------------------------
     1   6 C    3.987 --     2 C    0.998    37 H    0.981    38 H    0.981
                            39 H    0.972
     2   6 C    3.960 --     1 C    0.998     7 C    0.977     3 C    0.977
                            12 N    0.947
     3   6 C    3.993 --     4 C    0.997     2 C    0.977    25 H    0.971
                            24 H    0.969
     4   6 C    3.961 --     3 C    0.997     5 N    0.985    26 H    0.969
                            27 H    0.960
     5   7 N    3.231 --     4 C    0.985     6 C    0.985     8 S    0.959
     6   6 C    3.961 --     7 C    0.997     5 N    0.985    28 H    0.969
                            29 H    0.960
     7   6 C    3.993 --     6 C    0.997     2 C    0.977    30 H    0.971
                            31 H    0.969
     8  16 S    4.908 --    10 O    1.553     9 O    1.553     5 N    0.959
                            11 C    0.773
     9   8 O    1.841 --     8 S    1.553
    10   8 O    1.841 --     8 S    1.553
    11   6 C    3.953 --    42 H    0.971    41 H    0.971    40 H    0.969
                             8 S    0.773
    12   7 N    3.610 --    13 C    1.222    16 C    1.170     2 C    0.947
                            14 N    0.111
    13   6 C    3.952 --    14 N    1.589    12 N    1.222    32 H    0.957
    14   7 N    3.009 --    13 C    1.589    15 C    1.203    12 N    0.111
    15   6 C    3.974 --    23 C    1.300    16 C    1.270    14 N    1.203
    16   6 C    3.962 --    15 C    1.270    17 C    1.260    12 N    1.170
    17   6 C    3.979 --    16 C    1.260    18 C    1.246    21 C    1.233
    18   6 C    3.977 --    19 C    1.583    17 C    1.246    33 H    0.962
    19   6 C    3.950 --    18 C    1.583    20 N    1.224    34 H    0.969
    20   7 N    3.556 --    19 C    1.224    21 C    1.200    36 H    0.918
    21   6 C    3.959 --    22 N    1.307    17 C    1.233    20 N    1.200
    22   7 N    3.040 --    23 C    1.495    21 C    1.307
    23   6 C    3.981 --    22 N    1.495    15 C    1.300    35 H    0.962
    24   1 H    0.998 --     3 C    0.969
    25   1 H    0.996 --     3 C    0.971
    26   1 H    0.995 --     4 C    0.969
    27   1 H    0.993 --     4 C    0.960
    28   1 H    0.995 --     6 C    0.969
    29   1 H    0.993 --     6 C    0.960
    30   1 H    0.996 --     7 C    0.971
    31   1 H    0.998 --     7 C    0.969
    32   1 H    0.995 --    13 C    0.957
    33   1 H    1.000 --    18 C    0.962
    34   1 H    0.997 --    19 C    0.969
    35   1 H    0.997 --    23 C    0.962
    36   1 H    0.945 --    20 N    0.918
    37   1 H    0.996 --     1 C    0.981
    38   1 H    0.996 --     1 C    0.981
    39   1 H    0.994 --     1 C    0.972
    40   1 H    0.985 --    11 C    0.969
    41   1 H    0.984 --    11 C    0.971
    42   1 H    0.984 --    11 C    0.971
 ---------------------------------------------------------------------------

Topologies differ in total number of bonds
Writing topology from bond orders to xtbtopo.mol

molecular dipole:
                 x           y           z       tot (Debye)
 q only:       -3.182      -2.070       0.003
   full:       -3.617      -1.817       0.003      10.289
molecular quadrupole (traceless):
                xx          xy          yy          xz          yz          zz
 q only:        2.918      22.008       9.213      -0.002       0.001     -12.131
  q+dip:       -4.522      21.664      14.867       0.001       0.002     -10.345
   full:       -5.377      21.088      12.650       0.003       0.001      -7.273

           -------------------------------------------------
          |                Geometry Summary                 |
           -------------------------------------------------

      molecular mass/u    :      333.4090260
   center of mass at/Å    :        0.0000000      -0.0000000      -0.0000000
  moments of inertia/u·Å² :        0.1193775E+04   0.2534084E+04   0.3426699E+04
rotational constants/cm⁻¹ :        0.1412128E-01   0.6652358E-02   0.4919496E-02

 * 45 selected distances

     #   Z          #   Z                                           value/Å
     1   6 C        2   6 C                                       1.5296583
     2   6 C        3   6 C                                       1.5389226
     3   6 C        4   6 C                                       1.5302381
     4   6 C        5   7 N                                       1.4471135
     5   7 N        6   6 C                                       1.4471235
     2   6 C        7   6 C                                       1.5389159
     6   6 C        7   6 C                                       1.5302768
     5   7 N        8  16 S                                       1.6575726
     8  16 S        9   8 O                                       1.4509577
     8  16 S       10   8 O                                       1.4509527
     8  16 S       11   6 C                                       1.7907523 (max)
     2   6 C       12   7 N                                       1.4653945
    12   7 N       13   6 C                                       1.3658745
    13   6 C       14   7 N                                       1.2961370
    14   7 N       15   6 C                                       1.3717049
    12   7 N       16   6 C                                       1.3772856
    15   6 C       16   6 C                                       1.4192747
    16   6 C       17   6 C                                       1.4045581
    17   6 C       18   6 C                                       1.4229849
    18   6 C       19   6 C                                       1.3645003
    19   6 C       20   7 N                                       1.3609953
    17   6 C       21   6 C                                       1.4259081
    20   7 N       21   6 C                                       1.3582598
    21   6 C       22   7 N                                       1.3355495
    15   6 C       23   6 C                                       1.3970773
    22   7 N       23   6 C                                       1.3145000
     3   6 C       24   1 H                                       1.0898216
     3   6 C       25   1 H                                       1.0909604
     4   6 C       26   1 H                                       1.0893688
     4   6 C       27   1 H                                       1.0923670
     6   6 C       28   1 H                                       1.0893699
     6   6 C       29   1 H                                       1.0923681
     7   6 C       30   1 H                                       1.0909633
     7   6 C       31   1 H                                       1.0897999
    13   6 C       32   1 H                                       1.0690698
    18   6 C       33   1 H                                       1.0719885
    19   6 C       34   1 H                                       1.0715549
    23   6 C       35   1 H                                       1.0792366
    20   7 N       36   1 H                                       1.0061460 (min)
     1   6 C       37   1 H                                       1.0866562
     1   6 C       38   1 H                                       1.0866622
     1   6 C       39   1 H                                       1.0839682
    11   6 C       40   1 H                                       1.0816214
    11   6 C       41   1 H                                       1.0805327
    11   6 C       42   1 H                                       1.0805340

 * 7 distinct bonds (by element types)

   Z      Z             #   av. dist./Å        max./Å        min./Å
   1 H    6 C          18     1.0842691     1.0923681     1.0690698
   6 C    6 C          11     1.4638468     1.5389226     1.3645003
   1 H    7 N           1     1.0061460     1.0061460     1.0061460
   6 C    7 N          11     1.3763580     1.4653945     1.2961370
   6 C   16 S           1     1.7907523     1.7907523     1.7907523
   7 N   16 S           1     1.6575726     1.6575726     1.6575726
   8 O   16 S           2     1.4509552     1.4509577     1.4509527


optimized geometry written to: xtbopt.xyz


           -------------------------------------------------
          | TOTAL ENERGY              -67.915664980273 Eh   |
          | GRADIENT NORM               0.000053423949 Eh/α |
          | HOMO-LUMO GAP               3.375086909291 eV   |
           -------------------------------------------------

------------------------------------------------------------------------
 * finished run on 2026/04/27 at 12:57:51.346     
------------------------------------------------------------------------
 total:
 * wall-time:     0 d,  0 h,  0 min,  0.158 sec
 *  cpu-time:     0 d,  0 h,  0 min,  0.138 sec
 * ratio c/w:     0.875 speedup
 SCF:
 * wall-time:     0 d,  0 h,  0 min,  0.048 sec
 *  cpu-time:     0 d,  0 h,  0 min,  0.048 sec
 * ratio c/w:     0.996 speedup
 ANC optimizer:
 * wall-time:     0 d,  0 h,  0 min,  0.082 sec
 *  cpu-time:     0 d,  0 h,  0 min,  0.081 sec
 * ratio c/w:     0.987 speedup

