42
 energy: -67.915664980273 gnorm: 0.000053423949 xtb: 6.7.1 (edcfbbe)
C           -0.19015548350000       -3.41836861480000        0.00148587430000
C            0.00046251900000       -1.90063397550000        0.00073738090000
C           -0.63562036850000       -1.29220538430000       -1.26159993340000
C           -2.16350039720000       -1.36684026080000       -1.22109813200000
N           -2.71281512440000       -0.81831631970000        0.00017662730000
C           -2.16353327120000       -1.36561222300000        1.22202882120000
C           -0.63560387030000       -1.29123621540000        1.26260726530000
S           -3.17591789500000        0.77324940380000       -0.00064468520000
O           -2.75212790420000        1.41618008680000        1.22911955840000
O           -2.75234914140000        1.41474610770000       -1.23122777910000
C           -4.96287944160000        0.65679549740000       -0.00031919280000
N            1.43142058760000       -1.58481813420000        0.00040598380000
C            2.45184368870000       -2.49275472920000       -0.00035264160000
N            3.64027783960000       -1.97545919370000       -0.00106046950000
C            3.43409043360000       -0.61933949320000       -0.00081652870000
C            2.04068080820000       -0.34961886450000        0.00001399570000
C            1.64835744510000        0.99903430090000        0.00033887230000
C            0.46462125900000        1.78875203550000        0.00082088740000
C            0.85434490130000        3.09641256110000        0.00116617860000
N            2.21264586830000        3.18200507560000        0.00075815610000
C            2.73128001200000        1.92666145180000        0.00013299920000
N            4.04216254920000        1.67116480210000       -0.00058200030000
C            4.38668232260000        0.40261610430000       -0.00109955860000
H           -0.34314628280000       -0.24617877560000       -1.35103176950000
H           -0.27159591590000       -1.81900004320000       -2.14487109190000
H           -2.57413391980000       -0.78165904810000       -2.04308787860000
H           -2.50779855830000       -2.39966508420000       -1.31052523590000
H           -2.57410341700000       -0.77952164540000        2.04340355690000
H           -2.50800708560000       -2.39828724500000        1.31251554940000
H           -0.27177289360000       -1.81755044070000        2.14624811120000
H           -0.34288094200000       -0.24525098200000        1.35144325010000
H            2.29795470990000       -3.55069056590000       -0.00030378940000
H           -0.55887610720000        1.46998516770000        0.00084709470000
H            0.23870423200000        3.97346214860000        0.00161934630000
H            5.44285567660000        0.18069502240000       -0.00156922690000
H            2.76152501470000        4.02524955120000        0.00092350220000
H            0.25232244470000       -3.86262609870000       -0.88602190460000
H            0.25336940180000       -3.86179668970000        0.88889317980000
H           -1.24885460570000       -3.65105415010000        0.00221045410000
H           -5.35870344980000        1.66338650360000        0.00130504380000
H           -5.25077685950000        0.12276344300000        0.89381472070000
H           -5.25134987060000        0.12543910030000       -0.89586298800000
