48
 energy: -73.172257425805 gnorm: 0.000035436665 xtb: 6.7.1 (edcfbbe)
C          -17.07964519569874       36.31921757238928        1.04603836966970
C          -17.19346432750440       36.40500244576281       -0.47524949017859
C          -18.49728734037786       37.09292830004380       -0.87996439580754
C          -15.99179261516506       37.12925992108126       -1.08020922985233
O          -17.31498224234446       35.07018529506167       -1.04755266006085
C          -16.35024014591918       34.15137609346313       -0.90723635229887
O          -15.30109477971333       34.29747209290189       -0.30155147869820
N          -16.70465570859660       33.02027181072479       -1.54346514502828
C          -15.89042652146005       31.83197742523065       -1.56479859627885
C          -15.61617304214992       31.30581371350993       -2.97623486081915
C          -15.12503492793930       29.88374690910091       -2.72494064031107
C          -15.93979843263740       29.37934669954061       -1.51236379016275
C          -16.55724724023328       30.63546671055896       -0.86761417490699
N          -15.11205087500211       28.64050710077951       -0.58955551781689
C          -14.13071765907113       29.14632641527635        0.21073826087133
N          -13.51898176904196       28.25788535700755        0.93430211635626
C          -14.11328920506782       27.06087501029578        0.60535421003981
C          -15.11947944572178       27.29345802900595       -0.36242488101095
C          -15.84769771005513       26.20473112888772       -0.84724579646491
C          -16.88676167684385       25.93070492912254       -1.77375400482966
C          -17.10126230867866       24.58326575194387       -1.73627217847977
N          -16.25741574452584       23.99739668123263       -0.84033937558238
C          -15.47510787973358       24.95565809497058       -0.27837280621300
N          -14.53197991943080       24.72403334704439        0.64112510963365
C          -13.85877865608189       25.76835827630763        1.07564847339464
H          -17.60072219400628       33.00749851267408       -2.00753692088342
H          -14.95348503260079       32.10068578484403       -1.06715287849342
H          -16.54764506162944       31.29265198482645       -3.54208485326863
H          -14.88726018532114       31.90938604375351       -3.51113526257081
H          -14.06665055802786       29.89736719427547       -2.46060698907588
H          -15.24998773948474       29.24008249345097       -3.59265783296531
H          -16.72372631287141       28.69098852745596       -1.82995395807971
H          -16.40805776319330       30.65132903968398        0.21035353897322
H          -17.62857329603718       30.66384808313790       -1.06252005291733
H          -13.89455719196219       30.19211670286144        0.23731273803811
H          -17.40861089758954       26.63113549373717       -2.39393207154146
H          -17.80496111211664       23.99701536012141       -2.29276460923395
H          -13.09600204965378       25.58124623824194        1.81650525156100
H          -16.20641680467843       23.01638102253408       -0.62337362451686
H          -18.58349287879003       37.11627187585063       -1.96241058940780
H          -18.50899525823017       38.10794481469712       -0.49774227285527
H          -19.34491653240740       36.54766123617116       -0.47505474366682
H          -16.16459662149421       35.80301996354542        1.32646881088746
H          -17.92824435604900       35.77538489608415        1.45460091594764
H          -17.06274635216588       37.31977918858009        1.46592918979617
H          -15.07023502012597       36.61959821636774       -0.80939400813617
H          -16.07546894911597       37.15077884489195       -2.16430860312521
H          -15.95478246334732       38.14716337494499       -0.70580233863536
