  42

 C         -0.1902521709       -3.4183900099        0.0004638181
 C          0.0003346011       -1.9006426507        0.0002261902
 C         -0.6359271131       -1.2919107569       -1.2618635696
 C         -2.1638209340       -1.3665673286       -1.2212020512
 N         -2.7130093856       -0.8183778701        0.0002879347
 C         -2.1635562926       -1.3660043738        1.2219078761
 C         -0.6356380259       -1.2915053688        1.2622738300
 S         -3.1757669448        0.7732994773       -0.0001529814
 O         -2.7524252054        1.4155397822        1.2301212801
 O         -2.7514009108        1.4152629938       -1.2302281421
 C         -4.9627894716        0.6574084969       -0.0009311654
 N          1.4312955246       -1.5848221528       -0.0000640493
 C          2.4516996054       -2.4928007063       -0.0003343794
 N          3.6401396879       -1.9755239734       -0.0003663726
 C          3.4339867686       -0.6194168167       -0.0002665796
 C          2.0406026414       -0.3496423548       -0.0000705947
 C          1.6484016906        0.9990497382        0.0000171396
 C          0.4646928956        1.7887810607        0.0001101504
 C          0.8544310066        3.0964290751        0.0002040352
 N          2.2127505334        3.1819973707        0.0002450656
 C          2.7313848373        1.9266377087       -0.0000018179
 N          4.0422740444        1.6710314937       -0.0000394105
 C          4.3866498715        0.4024383850       -0.0001895189
 H         -0.3434419573       -0.2458802922       -1.3511442734
 H         -0.2720021491       -1.8185227587       -2.1452798532
 H         -2.5745465513       -0.7811912860       -2.0430143691
 H         -2.5081116634       -2.3993758186       -1.3108607087
 H         -2.5741024935       -0.7802011918        2.0435030630
 H         -2.5079280146       -2.3987348459        1.3121360183
 H         -0.2715728985       -1.8179323282        2.1457460819
 H         -0.3430340024       -0.2454879540        1.3512179637
 H          2.2978404923       -3.5507470248        0.0000413214
 H         -0.5587958777        1.4700048135        0.0002166193
 H          0.2388239232        3.9735091212        0.0004687719
 H          5.4427656193        0.1802963316       -0.0002922983
 H          2.7614450656        4.0253581798        0.0004316539
 H          0.2524556148       -3.8623643692       -0.8870920673
 H          0.2530933156       -3.8620653119        0.8878487425
 H         -1.2489581841       -3.6510811030        0.0008701043
 H         -5.3582201288        1.6641660300       -0.0008528938
 H         -5.2515481236        0.1246279620        0.8936656475
 H         -5.2508367695        0.1250531203       -0.8960159483
