  42
        -67.91566786
 C         -0.1901554835       -3.4183686148        0.0014858743
 C          0.0004625190       -1.9006339755        0.0007373809
 C         -0.6356203685       -1.2922053843       -1.2615999334
 C         -2.1635003972       -1.3668402608       -1.2210981320
 N         -2.7128151244       -0.8183163197        0.0001766273
 C         -2.1635332712       -1.3656122230        1.2220288212
 C         -0.6356038703       -1.2912362154        1.2626072653
 S         -3.1759178950        0.7732494038       -0.0006446852
 O         -2.7521279042        1.4161800868        1.2291195584
 O         -2.7523491414        1.4147461077       -1.2312277791
 C         -4.9628794416        0.6567954974       -0.0003191928
 N          1.4314205876       -1.5848181342        0.0004059838
 C          2.4518436887       -2.4927547292       -0.0003526416
 N          3.6402778396       -1.9754591937       -0.0010604695
 C          3.4340904336       -0.6193394932       -0.0008165287
 C          2.0406808082       -0.3496188645        0.0000139957
 C          1.6483574451        0.9990343009        0.0003388723
 C          0.4646212590        1.7887520355        0.0008208874
 C          0.8543449013        3.0964125611        0.0011661786
 N          2.2126458683        3.1820050756        0.0007581561
 C          2.7312800120        1.9266614518        0.0001329992
 N          4.0421625492        1.6711648021       -0.0005820003
 C          4.3866823226        0.4026161043       -0.0010995586
 H         -0.3431462828       -0.2461787756       -1.3510317695
 H         -0.2715959159       -1.8190000432       -2.1448710919
 H         -2.5741339198       -0.7816590481       -2.0430878786
 H         -2.5077985583       -2.3996650842       -1.3105252359
 H         -2.5741034170       -0.7795216454        2.0434035569
 H         -2.5080070856       -2.3982872450        1.3125155494
 H         -0.2717728936       -1.8175504407        2.1462481112
 H         -0.3428809420       -0.2452509820        1.3514432501
 H          2.2979547099       -3.5506905659       -0.0003037894
 H         -0.5588761072        1.4699851677        0.0008470947
 H          0.2387042320        3.9734621486        0.0016193463
 H          5.4428556766        0.1806950224       -0.0015692269
 H          2.7615250147        4.0252495512        0.0009235022
 H          0.2523224447       -3.8626260987       -0.8860219046
 H          0.2533694018       -3.8617966897        0.8888931798
 H         -1.2488546057       -3.6510541501        0.0022104541
 H         -5.3587034498        1.6633865036        0.0013050438
 H         -5.2507768595        0.1227634430        0.8938147207
 H         -5.2513498706        0.1254391003       -0.8958629880
  42
        -67.91446159
 C          0.2321170030       -1.3144190496        1.9780063264
 C         -0.1220372649       -0.9272770598        0.5386642492
 C         -1.0260534646       -1.9963048903       -0.0936150751
 C         -2.4191030665       -1.9932487870        0.5398565437
 N         -3.0538297292       -0.6947638492        0.4379097651
 C         -2.2606509720        0.3726522413        1.0136516123
 C         -0.8530336579        0.4229684245        0.4214955177
 S         -3.7812702962       -0.3559290435       -1.0292739812
 O         -3.4154656837        0.9753702920       -1.4757984167
 O         -3.5271848421       -1.4239588859       -1.9791101390
 C         -5.5178974891       -0.3672236994       -0.5938026389
 N          1.1311615530       -0.8194852516       -0.2113228337
 C          1.5102833010       -1.5574081063       -1.2933403900
 N          2.6603772723       -1.2297792479       -1.7968604777
 C          3.1070521550       -0.1949250669       -1.0122018592
 C          2.1533658729        0.0769845539        0.0002956549
 C          2.4531498669        1.0972221600        0.9163721966
 C          1.8998644190        1.7255879787        2.0666888191
 C          2.7836121177        2.6863953320        2.4640165385
 N          3.8620559049        2.7020721865        1.6343141152
 C          3.6993219519        1.7471095218        0.6822558313
 N          4.5932088158        1.5006949239       -0.2802259092
 C          4.2961134442        0.5323611197       -1.1180546368
 H         -1.1628600418       -1.7825602323       -1.1567748150
 H         -0.5842888640       -2.9871003159        0.0152976765
 H         -3.0525008882       -2.7029697305        0.0092565282
 H         -2.3778350275       -2.2653867520        1.5955118521
 H         -2.7744443401        1.3080336024        0.7962388516
 H         -2.2328327134        0.2201332173        2.0941624411
 H         -0.2835320931        1.2164233521        0.8985614356
 H         -0.9465688075        0.6696891885       -0.6408988447
 H          0.9162695422       -2.3500737475       -1.6984162138
 H          0.9742439262        1.5087867120        2.5595571144
 H          2.7127319015        3.3637822923        3.2913031282
 H          5.0120061863        0.3196556991       -1.8974899077
 H          4.6607501441        3.3103022440        1.7000529270
 H          1.0235833962       -0.6781477180        2.3590879968
 H         -0.6290712677       -1.2282596219        2.6302438547
 H          0.5866853712       -2.3423230942        2.0004011616
 H         -5.7417400629       -1.3453357529       -0.1928302477
 H         -6.0871849257       -0.1726436117       -1.4928357632
 H         -5.6683736147        0.4106748086        0.1408695091
  42
        -67.91379772
 C          0.2117301417       -0.6940900758        2.4215593726
 C         -0.1749455073       -0.7395538518        0.9375492694
 C         -1.1431733757       -1.9155862863        0.7277865017
 C         -1.8000027358       -1.9514048225       -0.6555980307
 N         -2.3940464628       -0.6803534342       -1.0231335309
 C         -1.4562687351        0.4189319894       -0.9170709523
 C         -0.8951618385        0.5476276847        0.4972915119
 S         -3.9171099438       -0.4068419725       -0.3943233883
 O         -4.1053336130       -1.0621893748        0.8903166128
 O         -4.1596023502        1.0209115345       -0.3965729115
 C         -4.9808877647       -1.1825377206       -1.6074148499
 N          1.0530485409       -0.8917827114        0.1603306764
 C          1.4257928448       -1.9636658085       -0.5966209457
 N          2.5651571310       -1.8301959412       -1.2018702865
 C          3.0189000510       -0.5890162718       -0.8313416409
 C          2.0821902310        0.0151915198        0.0447552755
 C          2.4092192479        1.2749014962        0.5709440840
 C          1.8935929788        2.2436643612        1.4766816753
 C          2.7916291198        3.2702320796        1.5210773833
 N          3.8433244186        3.0080440281        0.6983888188
 C          3.6509250176        1.7995862794        0.1088597126
 N          4.5206473094        1.2423830544       -0.7388663097
 C          4.2050141888        0.0524826871       -1.1992685949
 H         -0.6457671789       -2.8641765770        0.9285803042
 H         -1.9446985976       -1.7977440250        1.4599046155
 H         -1.0830043149       -2.2022307118       -1.4408555104
 H         -2.5953983960       -2.6958636653       -0.6490268493
 H         -0.6555874389        0.2457591079       -1.6417178052
 H         -1.9970832663        1.3253217041       -1.1874414972
 H         -1.7297859220        0.7336057982        1.1769220720
 H         -0.2205019140        1.3986868510        0.5281737899
 H          0.8442373809       -2.8578051223       -0.6766843805
 H          0.9858391507        2.2036445604        2.0441802774
 H          2.7477795516        4.1759188299        2.0922776346
 H          4.9049432606       -0.4146442751       -1.8752128796
 H          4.6469428544        3.5943422831        0.5476781804
 H          0.9761067632        0.0549500215        2.6005612314
 H         -0.6588075365       -0.4621010757        3.0279758747
 H          0.6031661259       -1.6613324837        2.7288925326
 H         -4.7479839881       -2.2370628457       -1.6425501103
 H         -4.7832821396       -0.6958865836       -2.5515839829
 H         -6.0029922221       -1.0230029256       -1.2898654721
  42
        -67.91330820
 C          0.8333123049       -2.3146789832       -2.0481338057
 C         -0.1894672403       -1.7091898848       -1.0756680304
 C         -1.0494625712       -0.6324448142       -1.7772715683
 C         -2.5070735348       -0.6309037211       -1.3011360528
 N         -2.6174462505       -0.9720851000        0.1008733705
 C         -2.2086709723       -2.3342929656        0.3872934381
 C         -1.1104354138       -2.8286926093       -0.5668795140
 S         -2.2154062654        0.2342129235        1.1730187095
 O         -1.7726026076       -0.3717304025        2.4110670976
 O         -1.3215012274        1.2163143816        0.5867555302
 C         -3.8054201047        1.0131168255        1.4548239751
 N          0.5681225235       -1.1037661933        0.0206436377
 C          0.7020420195       -1.5716481321        1.2942322117
 N          1.4637995634       -0.8553118895        2.0613544073
 C          1.8859788319        0.1815097431        1.2650965559
 C          1.3518966039        0.0245780169       -0.0369452601
 C          1.7487843773        0.9469487672       -1.0157278749
 C          1.5868780251        1.1909518488       -2.4079140982
 C          2.3065511545        2.3110734369       -2.7050077285
 N          2.9145752976        2.7879741141       -1.5836819717
 C          2.6050144671        1.9783442797       -0.5372711253
 N          3.0727008313        2.1564205137        0.7022534005
 C          2.7190316090        1.2540122773        1.5916819243
 H         -0.6298707191        0.3467435511       -1.5585303790
 H         -1.0277328195       -0.7920417604       -2.8543796887
 H         -2.9325125832        0.3624271236       -1.4352595986
 H         -3.1095773389       -1.3547733597       -1.8529707486
 H         -1.8883496354       -2.3399526180        1.4289899935
 H         -3.0905257115       -2.9766443360        0.2963898666
 H         -1.5769216524       -3.2636017923       -1.4513397974
 H         -0.5270143675       -3.6122597162       -0.0850591446
 H          0.2451060896       -2.4735680045        1.6437173041
 H          1.0227020607        0.6162779915       -3.1125017916
 H          2.4288226651        2.8023522712       -3.6494136520
 H          3.1031359155        1.3764294786        2.5934509699
 H          3.5072623082        3.5982785848       -1.5205611888
 H          1.5100098794       -1.5474006412       -2.4123671794
 H          1.4231123320       -3.0737551555       -1.5387392509
 H          0.3278150078       -2.7731268516       -2.8922519612
 H         -4.1790806519        1.3706041333        0.5060203938
 H         -3.6474961095        1.8330998250        2.1426258838
 H         -4.4519127856        0.2610773844        1.8836247595
  42
        -67.91018423
 C         -0.2792725391       -0.5356942969       -1.7253206146
 C         -0.1237379950       -0.9415898584       -0.2541835325
 C         -0.7191226080        0.1321056533        0.6920440775
 C         -1.8290048893       -0.4218508135        1.5839420478
 N         -2.8496622771       -1.0753453078        0.7890688532
 C         -2.3507705340       -2.1512346589       -0.0631646827
 C         -0.8291083819       -2.2847115786       -0.0055911778
 S         -3.9089466998       -0.0448840163        0.0119103075
 O         -4.0277543598        1.1662233275        0.7962163312
 O         -3.5451446690        0.1591992383       -1.3836737185
 C         -5.4462443243       -0.9565824971        0.0830437768
 N          1.3074374312       -1.0865591560        0.0167501980
 C          1.9900874099       -2.2391722483        0.2798305828
 N          3.2673450732       -2.0860092728        0.4461115963
 C          3.4882122685       -0.7413961100        0.2778880146
 C          2.2589485791       -0.0942365519       -0.0023213633
 C          2.2883680050        1.2897605176       -0.2230277616
 C          1.4023924800        2.3551714561       -0.5377795603
 C          2.1553092381        3.4902575937       -0.6180724273
 N          3.4638198906        3.2035544557       -0.3719067160
 C          3.5844164609        1.8726689344       -0.1282199180
 N          4.7437528279        1.2661264194        0.1431514539
 C          4.6912863045       -0.0323923991        0.3435090732
 H          0.0635327125        0.5659561409        1.3140925468
 H         -1.1661080482        0.9303682092        0.0970237714
 H         -1.4516595249       -1.1358591280        2.3172114563
 H         -2.3205367989        0.3970625768        2.1088139884
 H         -2.8034724883       -3.0892738612        0.2703570607
 H         -2.6727851921       -1.9467461882       -1.0863638870
 H         -0.5247375263       -3.0088285489       -0.7611648639
 H         -0.5470664412       -2.6654007725        0.9760186380
 H          1.5220615667       -3.1988854038        0.3427503047
 H          0.3439659256        2.3035351702       -0.6883962864
 H          1.8406006923        4.4910611677       -0.8368831774
 H          5.6234801739       -0.5317752531        0.5593622201
 H          4.2298900889        3.8557026804       -0.3706333167
 H          0.0382297652       -1.3476817687       -2.3759950225
 H         -1.3159896829       -0.2896369156       -1.9426704840
 H          0.3322931888        0.3349741437       -1.9446738785
 H         -6.2126473056       -0.3444936242       -0.3739446231
 H         -5.6551297162       -1.1316154216        1.1283795683
 H         -5.3113262999       -1.8801104456       -0.4615325550
