  42
        -67.91566786
 C         -0.1901554835       -3.4183686148        0.0014858743
 C          0.0004625190       -1.9006339755        0.0007373809
 C         -0.6356203685       -1.2922053843       -1.2615999334
 C         -2.1635003972       -1.3668402608       -1.2210981320
 N         -2.7128151244       -0.8183163197        0.0001766273
 C         -2.1635332712       -1.3656122230        1.2220288212
 C         -0.6356038703       -1.2912362154        1.2626072653
 S         -3.1759178950        0.7732494038       -0.0006446852
 O         -2.7521279042        1.4161800868        1.2291195584
 O         -2.7523491414        1.4147461077       -1.2312277791
 C         -4.9628794416        0.6567954974       -0.0003191928
 N          1.4314205876       -1.5848181342        0.0004059838
 C          2.4518436887       -2.4927547292       -0.0003526416
 N          3.6402778396       -1.9754591937       -0.0010604695
 C          3.4340904336       -0.6193394932       -0.0008165287
 C          2.0406808082       -0.3496188645        0.0000139957
 C          1.6483574451        0.9990343009        0.0003388723
 C          0.4646212590        1.7887520355        0.0008208874
 C          0.8543449013        3.0964125611        0.0011661786
 N          2.2126458683        3.1820050756        0.0007581561
 C          2.7312800120        1.9266614518        0.0001329992
 N          4.0421625492        1.6711648021       -0.0005820003
 C          4.3866823226        0.4026161043       -0.0010995586
 H         -0.3431462828       -0.2461787756       -1.3510317695
 H         -0.2715959159       -1.8190000432       -2.1448710919
 H         -2.5741339198       -0.7816590481       -2.0430878786
 H         -2.5077985583       -2.3996650842       -1.3105252359
 H         -2.5741034170       -0.7795216454        2.0434035569
 H         -2.5080070856       -2.3982872450        1.3125155494
 H         -0.2717728936       -1.8175504407        2.1462481112
 H         -0.3428809420       -0.2452509820        1.3514432501
 H          2.2979547099       -3.5506905659       -0.0003037894
 H         -0.5588761072        1.4699851677        0.0008470947
 H          0.2387042320        3.9734621486        0.0016193463
 H          5.4428556766        0.1806950224       -0.0015692269
 H          2.7615250147        4.0252495512        0.0009235022
 H          0.2523224447       -3.8626260987       -0.8860219046
 H          0.2533694018       -3.8617966897        0.8888931798
 H         -1.2488546057       -3.6510541501        0.0022104541
 H         -5.3587034498        1.6633865036        0.0013050438
 H         -5.2507768595        0.1227634430        0.8938147207
 H         -5.2513498706        0.1254391003       -0.8958629880
  42
        -67.91475091
 C          0.2226712147       -1.2891267141       -1.9896608863
 C         -0.1235924914       -0.9222215362       -0.5429553750
 C         -0.8676350445        0.4185030807       -0.4042121167
 C         -2.2862973051        0.3612981672       -0.9720621911
 N         -3.0612598928       -0.7368544124       -0.4265787799
 C         -2.4007618109       -2.0192047686       -0.5579718454
 C         -1.0129637439       -2.0063435117        0.0848950528
 S         -3.7670281271       -0.4214745193        1.0553701149
 O         -3.9935894212       -1.6816884107        1.7334727476
 O         -3.0204302244        0.5662461692        1.8180988667
 C         -5.3455478882        0.2766845873        0.5787404935
 N          1.1339302466       -0.8103893028        0.1990478175
 C          1.5265548073       -1.5532094854        1.2727226456
 N          2.6795030692       -1.2231186324        1.7679943935
 C          3.1133779243       -0.1802611029        0.9867179572
 C          2.1487195819        0.0939002981       -0.0146427463
 C          2.4333258814        1.1235634222       -0.9249275797
 C          1.8644665108        1.7591160532       -2.0636220790
 C          2.7395768082        2.7272588318       -2.4625561316
 N          3.8264708820        2.7415213464       -1.6439791461
 C          3.6784418129        1.7779734289       -0.6982939625
 N          4.5839565150        1.5276709041        0.2521738781
 C          4.3002340179        0.5516933505        1.0856820028
 H         -0.9418537095        0.6556193652        0.6609359197
 H         -0.3156171258        1.2204737922       -0.8877882723
 H         -2.8051815638        1.2846332727       -0.7183161619
 H         -2.2723906014        0.2465779618       -2.0577548248
 H         -3.0299639269       -2.7500627262       -0.0507503028
 H         -2.3477863458       -2.2644645368       -1.6195529185
 H         -0.5559655583       -2.9903835297       -0.0219930840
 H         -1.1569535131       -1.7931217489        1.1480907890
 H          0.9409500506       -2.3521981849        1.6776552713
 H          0.9347658783        1.5412845332       -2.5482046797
 H          2.6572678797        3.4108351213       -3.2836909818
 H          5.0259280811        0.3358641321        1.8550965712
 H          4.6211880908        3.3545680875       -1.7123695918
 H          0.5634005695       -2.3210368869       -2.0321091847
 H         -0.6381660903       -1.1788350457       -2.6388355251
 H          1.0220358723       -0.6563234995       -2.3601292827
 H         -5.1598114091        1.1688484482       -0.0017209414
 H         -5.8862523265        0.5106487317        1.4862249550
 H         -5.8577129206       -0.4789323653        0.0006665104
  42
        -67.91446159
 C          0.2321170030       -1.3144190496        1.9780063264
 C         -0.1220372649       -0.9272770598        0.5386642492
 C         -1.0260534646       -1.9963048903       -0.0936150751
 C         -2.4191030665       -1.9932487870        0.5398565437
 N         -3.0538297292       -0.6947638492        0.4379097651
 C         -2.2606509720        0.3726522413        1.0136516123
 C         -0.8530336579        0.4229684245        0.4214955177
 S         -3.7812702962       -0.3559290435       -1.0292739812
 O         -3.4154656837        0.9753702920       -1.4757984167
 O         -3.5271848421       -1.4239588859       -1.9791101390
 C         -5.5178974891       -0.3672236994       -0.5938026389
 N          1.1311615530       -0.8194852516       -0.2113228337
 C          1.5102833010       -1.5574081063       -1.2933403900
 N          2.6603772723       -1.2297792479       -1.7968604777
 C          3.1070521550       -0.1949250669       -1.0122018592
 C          2.1533658729        0.0769845539        0.0002956549
 C          2.4531498669        1.0972221600        0.9163721966
 C          1.8998644190        1.7255879787        2.0666888191
 C          2.7836121177        2.6863953320        2.4640165385
 N          3.8620559049        2.7020721865        1.6343141152
 C          3.6993219519        1.7471095218        0.6822558313
 N          4.5932088158        1.5006949239       -0.2802259092
 C          4.2961134442        0.5323611197       -1.1180546368
 H         -1.1628600418       -1.7825602323       -1.1567748150
 H         -0.5842888640       -2.9871003159        0.0152976765
 H         -3.0525008882       -2.7029697305        0.0092565282
 H         -2.3778350275       -2.2653867520        1.5955118521
 H         -2.7744443401        1.3080336024        0.7962388516
 H         -2.2328327134        0.2201332173        2.0941624411
 H         -0.2835320931        1.2164233521        0.8985614356
 H         -0.9465688075        0.6696891885       -0.6408988447
 H          0.9162695422       -2.3500737475       -1.6984162138
 H          0.9742439262        1.5087867120        2.5595571144
 H          2.7127319015        3.3637822923        3.2913031282
 H          5.0120061863        0.3196556991       -1.8974899077
 H          4.6607501441        3.3103022440        1.7000529270
 H          1.0235833962       -0.6781477180        2.3590879968
 H         -0.6290712677       -1.2282596219        2.6302438547
 H          0.5866853712       -2.3423230942        2.0004011616
 H         -5.7417400629       -1.3453357529       -0.1928302477
 H         -6.0871849257       -0.1726436117       -1.4928357632
 H         -5.6683736147        0.4106748086        0.1408695091
  42
        -67.91433403
 C         -0.2127037745       -3.3383063897       -0.0003434301
 C          0.0914449529       -1.8406968311        0.0009850126
 C         -0.4735981295       -1.1903222054       -1.2795037086
 C         -1.9835592887       -0.9723707296       -1.2073200232
 N         -2.2945429062       -0.2425661373       -0.0000596065
 C         -1.9857853328       -0.9740730687        1.2067216064
 C         -0.4759218641       -1.1919132326        1.2812234923
 S         -3.6009202201        0.7489725023       -0.0004142281
 O         -3.5602643466        1.5127168174        1.2292011133
 O         -3.5583446969        1.5145379091       -1.2287863968
 C         -5.0842835023       -0.2682302111       -0.0023374841
 N          1.5371333514       -1.6194677918        0.0020309201
 C          2.5212919147       -2.5635865119        0.0020876976
 N          3.7279737572       -2.0868977772        0.0006682550
 C          3.5700217589       -0.7228070615       -0.0005872820
 C          2.1880714455       -0.4082499773        0.0009487421
 C          1.8265805558        0.9477835780        0.0009953309
 C          0.6574398955        1.7608747274        0.0032619301
 C          1.0786865960        3.0589523485        0.0021165228
 N          2.4397146558        3.1137882374       -0.0008030371
 C          2.9309889660        1.8471180370       -0.0014794014
 N          4.2347095990        1.5537589429       -0.0039689476
 C          4.5476075565        0.2764314537       -0.0035089049
 H          0.0068436654       -0.2264617109       -1.4345610698
 H         -0.2403278253       -1.8238294089       -2.1359736663
 H         -2.3173836839       -0.3607161547       -2.0453911109
 H         -2.5130021161       -1.9335596861       -1.2248149336
 H         -2.3211848603       -0.3635641845        2.0450072693
 H         -2.5152408592       -1.9352940193        1.2219481027
 H         -0.2442930715       -1.8264014448        2.1373921713
 H          0.0039699585       -0.2281053951        1.4381795082
 H          2.3243763667       -3.6150321063        0.0035384978
 H         -0.3706858870        1.4531980984        0.0052117209
 H          0.4867423154        3.9524800308        0.0034729061
 H          5.5985723307        0.0303999305       -0.0047095950
 H          3.0058268652        3.9453876225       -0.0017832555
 H          0.1965139544       -3.8166793913       -0.8862050613
 H          0.1941661831       -3.8176904596        0.8860361566
 H         -1.2876096679       -3.4847973994       -0.0018435498
 H         -5.9276075121        0.4080656661       -0.0041449312
 H         -5.0736679675       -0.8684958021        0.8964446729
 H         -5.0707939926       -0.8694701206       -0.9004241914
  42
        -67.91379772
 C          0.2117301417       -0.6940900758        2.4215593726
 C         -0.1749455073       -0.7395538518        0.9375492694
 C         -1.1431733757       -1.9155862863        0.7277865017
 C         -1.8000027358       -1.9514048225       -0.6555980307
 N         -2.3940464628       -0.6803534342       -1.0231335309
 C         -1.4562687351        0.4189319894       -0.9170709523
 C         -0.8951618385        0.5476276847        0.4972915119
 S         -3.9171099438       -0.4068419725       -0.3943233883
 O         -4.1053336130       -1.0621893748        0.8903166128
 O         -4.1596023502        1.0209115345       -0.3965729115
 C         -4.9808877647       -1.1825377206       -1.6074148499
 N          1.0530485409       -0.8917827114        0.1603306764
 C          1.4257928448       -1.9636658085       -0.5966209457
 N          2.5651571310       -1.8301959412       -1.2018702865
 C          3.0189000510       -0.5890162718       -0.8313416409
 C          2.0821902310        0.0151915198        0.0447552755
 C          2.4092192479        1.2749014962        0.5709440840
 C          1.8935929788        2.2436643612        1.4766816753
 C          2.7916291198        3.2702320796        1.5210773833
 N          3.8433244186        3.0080440281        0.6983888188
 C          3.6509250176        1.7995862794        0.1088597126
 N          4.5206473094        1.2423830544       -0.7388663097
 C          4.2050141888        0.0524826871       -1.1992685949
 H         -0.6457671789       -2.8641765770        0.9285803042
 H         -1.9446985976       -1.7977440250        1.4599046155
 H         -1.0830043149       -2.2022307118       -1.4408555104
 H         -2.5953983960       -2.6958636653       -0.6490268493
 H         -0.6555874389        0.2457591079       -1.6417178052
 H         -1.9970832663        1.3253217041       -1.1874414972
 H         -1.7297859220        0.7336057982        1.1769220720
 H         -0.2205019140        1.3986868510        0.5281737899
 H          0.8442373809       -2.8578051223       -0.6766843805
 H          0.9858391507        2.2036445604        2.0441802774
 H          2.7477795516        4.1759188299        2.0922776346
 H          4.9049432606       -0.4146442751       -1.8752128796
 H          4.6469428544        3.5943422831        0.5476781804
 H          0.9761067632        0.0549500215        2.6005612314
 H         -0.6588075365       -0.4621010757        3.0279758747
 H          0.6031661259       -1.6613324837        2.7288925326
 H         -4.7479839881       -2.2370628457       -1.6425501103
 H         -4.7832821396       -0.6958865836       -2.5515839829
 H         -6.0029922221       -1.0230029256       -1.2898654721
  42
        -67.91358243
 C          0.2610687681       -0.7162603878        2.4214959787
 C         -0.1447098620       -0.7547103142        0.9421282003
 C         -1.0967513709       -1.9444012472        0.7302064951
 C         -1.7394750436       -1.9801954973       -0.6579488974
 N         -2.4010747702       -0.7323553641       -0.9773711125
 C         -1.5157742421        0.4095740578       -0.8606396714
 C         -0.8905867660        0.5262967879        0.5294379568
 S         -3.9351804853       -0.5122531517       -0.3584748134
 O         -4.4693119207       -1.8062612726        0.0152433474
 O         -3.9610051025        0.4930233592        0.6911916977
 C         -4.8344471240        0.1040496144       -1.7781043831
 N          1.0763440886       -0.8840222103        0.1495940798
 C          1.4654415965       -1.9520993626       -0.6048596856
 N          2.5966670604       -1.7974852839       -1.2204403651
 C          3.0286450677       -0.5462681565       -0.8575067517
 C          2.0878414378        0.0416212306        0.0250859131
 C          2.3968488885        1.3068875623        0.5491477589
 C          1.8733524511        2.2645057432        1.4623400825
 C          2.7530178302        3.3071946268        1.4988724677
 N          3.8000833317        3.0659215876        0.6638640442
 C          3.6240588274        1.8546508298        0.0751449072
 N          4.4958825967        1.3136006202       -0.7808969587
 C          4.1989484223        0.1172786555       -1.2370355695
 H         -0.5895365152       -2.8869852784        0.9349113158
 H         -1.9063944326       -1.8384710332        1.4566970463
 H         -1.0052657037       -2.1624575977       -1.4459658308
 H         -2.5006715706       -2.7597275565       -0.6880956565
 H         -0.7404719668        0.3042847929       -1.6251665893
 H         -2.1021721892        1.3038645334       -1.0671136146
 H         -1.6920751264        0.7094433595        1.2465054316
 H         -0.2174043860        1.3790788491        0.5293777687
 H          0.9018420449       -2.8586046589       -0.6758529742
 H          0.9739396061        2.2053666633        2.0412168217
 H          2.6992089197        4.2107644298        2.0725028064
 H          4.9016525820       -0.3377430083       -1.9183850664
 H          4.5921307679        3.6661449655        0.5068568431
 H          0.6759400922       -1.6783938282        2.7140260524
 H          1.0130254384        0.0462481837        2.5967948534
 H         -0.6047991541       -0.5068668703        3.0425732848
 H         -4.8160121583       -0.6781264545       -2.5232206053
 H         -4.3400617909        0.9996721822       -2.1258148082
 H         -5.8455283365        0.3182279591       -1.4578501160
  42
        -67.91330820
 C          0.8333123049       -2.3146789832       -2.0481338057
 C         -0.1894672403       -1.7091898848       -1.0756680304
 C         -1.0494625712       -0.6324448142       -1.7772715683
 C         -2.5070735348       -0.6309037211       -1.3011360528
 N         -2.6174462505       -0.9720851000        0.1008733705
 C         -2.2086709723       -2.3342929656        0.3872934381
 C         -1.1104354138       -2.8286926093       -0.5668795140
 S         -2.2154062654        0.2342129235        1.1730187095
 O         -1.7726026076       -0.3717304025        2.4110670976
 O         -1.3215012274        1.2163143816        0.5867555302
 C         -3.8054201047        1.0131168255        1.4548239751
 N          0.5681225235       -1.1037661933        0.0206436377
 C          0.7020420195       -1.5716481321        1.2942322117
 N          1.4637995634       -0.8553118895        2.0613544073
 C          1.8859788319        0.1815097431        1.2650965559
 C          1.3518966039        0.0245780169       -0.0369452601
 C          1.7487843773        0.9469487672       -1.0157278749
 C          1.5868780251        1.1909518488       -2.4079140982
 C          2.3065511545        2.3110734369       -2.7050077285
 N          2.9145752976        2.7879741141       -1.5836819717
 C          2.6050144671        1.9783442797       -0.5372711253
 N          3.0727008313        2.1564205137        0.7022534005
 C          2.7190316090        1.2540122773        1.5916819243
 H         -0.6298707191        0.3467435511       -1.5585303790
 H         -1.0277328195       -0.7920417604       -2.8543796887
 H         -2.9325125832        0.3624271236       -1.4352595986
 H         -3.1095773389       -1.3547733597       -1.8529707486
 H         -1.8883496354       -2.3399526180        1.4289899935
 H         -3.0905257115       -2.9766443360        0.2963898666
 H         -1.5769216524       -3.2636017923       -1.4513397974
 H         -0.5270143675       -3.6122597162       -0.0850591446
 H          0.2451060896       -2.4735680045        1.6437173041
 H          1.0227020607        0.6162779915       -3.1125017916
 H          2.4288226651        2.8023522712       -3.6494136520
 H          3.1031359155        1.3764294786        2.5934509699
 H          3.5072623082        3.5982785848       -1.5205611888
 H          1.5100098794       -1.5474006412       -2.4123671794
 H          1.4231123320       -3.0737551555       -1.5387392509
 H          0.3278150078       -2.7731268516       -2.8922519612
 H         -4.1790806519        1.3706041333        0.5060203938
 H         -3.6474961095        1.8330998250        2.1426258838
 H         -4.4519127856        0.2610773844        1.8836247595
  42
        -67.91304703
 C          0.3015580812       -1.2645229555        2.3224460512
 C         -0.1318573988       -0.9698087258        0.8796626973
 C         -1.1084690317       -2.0721890958        0.4304967084
 C         -1.7704990013       -1.8014668778       -0.9251008189
 N         -2.3476572917       -0.4803444148       -1.0083788553
 C         -1.4634237382        0.5911662745       -0.6163064617
 C         -0.8667433503        0.3799923259        0.7756298961
 S         -3.9643794186       -0.2980724790       -0.8137231727
 O         -4.2943528724        1.0489629205       -1.2330673347
 O         -4.6028585585       -1.3722670605       -1.5476040782
 C         -4.4251490577       -0.4671520669        0.9200203144
 N          1.0728025766       -0.9315238565        0.0544270262
 C          1.4363394463       -1.8101764392       -0.9234751458
 N          2.5514105876       -1.5252029898       -1.5218863394
 C          2.9978556924       -0.3803501236       -0.9101954916
 C          2.0847134344        0.0006435064        0.1048871019
 C          2.4166921657        1.1193367676        0.8856974686
 C          1.9295677301        1.8493626818        2.0060384514
 C          2.8148132217        2.8604901683        2.2427096040
 N          3.8317111971        2.8127967594        1.3399206666
 C          3.6302726958        1.7612273802        0.5043111867
 N          4.4726658179        1.4236591116       -0.4766418367
 C          4.1583883353        0.3533772816       -1.1718290338
 H         -0.6049182238       -3.0378552963        0.3979128966
 H         -1.8808571275       -2.1339446581        1.1968790510
 H         -1.0458431015       -1.8892702947       -1.7401564241
 H         -2.5799314649       -2.5077031645       -1.1119115942
 H         -0.6615116719        0.6553883186       -1.3603428547
 H         -2.0478266228        1.5099779182       -0.6607475753
 H         -1.6555882030        0.3985974215        1.5258214059
 H         -0.1838008696        1.2018118408        0.9711312555
 H          0.8693117263       -2.6818900290       -1.1744530693
 H          1.0531582966        1.6602636841        2.5915325234
 H          2.7860384456        3.6145995053        3.0035593954
 H          4.8388074853        0.0592084799       -1.9566331522
 H          4.6197247532        3.4361571528        1.2908624358
 H         -0.5427840750       -1.1825115938        2.9993474960
 H          0.7031457238       -2.2731907689        2.3857604184
 H          1.0750349394       -0.5733379464        2.6404426208
 H         -3.9617426321        0.3372186768        1.4729102355
 H         -4.1153754465       -1.4446693534        1.2601821565
 H         -5.5026614996       -0.3778883253        0.9489507328
  42
        -67.91289253
 C         -0.1399624124       -3.3286925268       -0.0640641528
 C          0.1403406196       -1.8269653208       -0.0415488872
 C         -0.4142248451       -1.1695671185       -1.3223592518
 C         -1.9280345212       -0.9833256975       -1.2738635664
 N         -2.2773608324       -0.2510495557       -0.0739790113
 C         -1.9751308431       -1.0045069383        1.1263124688
 C         -0.4650624106       -1.2000489092        1.2312406562
 S         -3.7402158950        0.5444027781       -0.0515727280
 O         -4.1685311784        0.7508373660       -1.4197010104
 O         -4.6900788671       -0.1477675538        0.8037786943
 C         -3.3192630422        2.1242812228        0.6769226489
 N          1.5825704489       -1.5842646230       -0.0102908953
 C          2.5835686373       -2.5108622314       -0.0070810359
 N          3.7813563229       -2.0128591300        0.0226069718
 C          3.5991767219       -0.6513909657        0.0409533701
 C          2.2126413716       -0.3624866824        0.0197744702
 C          1.8257858583        0.9854736345        0.0344437488
 C          0.6393513527        1.7717187566        0.0239286059
 C          1.0317458859        3.0786679307        0.0572138450
 N          2.3912057993        3.1617953654        0.0883143727
 C          2.9103417495        1.9066565449        0.0739585835
 N          4.2195856086        1.6378741226        0.0943440332
 C          4.5569639499        0.3671070091        0.0767607331
 H          0.0527065334       -0.1967544858       -1.4593681861
 H         -0.1596912126       -1.7888320637       -2.1830243800
 H         -2.2731971992       -0.3944894930       -2.1234327424
 H         -2.4449320300       -1.9524007309       -1.2984327552
 H         -2.3470217689       -0.4399270055        1.9803061230
 H         -2.5020522995       -1.9675906001        1.1134824393
 H         -0.2476163862       -1.8427100444        2.0848235074
 H          0.0005144898       -0.2334496922        1.4098082306
 H          2.4051290849       -3.5655532041       -0.0268874163
 H         -0.3737815262        1.4240382277       -0.0118678339
 H          0.4283291511        3.9643044763        0.0616958317
 H          5.6124561707        0.1408214133        0.0918195128
 H          2.9393571882        4.0048776186        0.1149128557
 H          0.2878388613       -3.7919403374       -0.9494096226
 H          0.2601981760       -3.8130326051        0.8229249426
 H         -1.2130337570       -3.4911784873       -0.0829920039
 H         -2.8089894258        1.9421644900        1.6119701251
 H         -4.2425516291        2.6645738407        0.8376137666
 H         -2.6857313915        2.6354509172       -0.0343049523
  42
        -67.91263599
 C         -0.1544953599       -3.3031339235        0.1045262385
 C          0.1411809602       -1.8048200369        0.0619204606
 C         -0.4650501604       -1.1870830432       -1.2143804929
 C         -1.9708678526       -0.9654050581       -1.1043492259
 N         -2.2545352987       -0.1852851623        0.0851542093
 C         -1.9086972981       -0.9123205141        1.2914703064
 C         -0.3991094124       -1.1261266106        1.3373552468
 S         -3.7675601977        0.5199221714        0.0765959137
 O         -4.7552126259       -0.3744672725       -0.5066999626
 O         -4.0551435962        0.9608157605        1.4251023465
 C         -3.5483376245        1.9513014625       -0.9779370169
 N          1.5851887766       -1.5761234867        0.0188176897
 C          2.5781305356       -2.5111964648        0.0169447821
 N          3.7797775147       -2.0236407253       -0.0273961400
 C          3.6089365158       -0.6609107652       -0.0580489142
 C          2.2251495100       -0.3600171626       -0.0284180256
 C          1.8492079416        0.9909469832       -0.0523389550
 C          0.6695267913        1.7873811193       -0.0373439595
 C          1.0726165235        3.0906515107       -0.0842326107
 N          2.4323670007        3.1619342546       -0.1294685848
 C          2.9409912031        1.9025563889       -0.1094611424
 N          4.2476945020        1.6224888406       -0.1388818429
 C          4.5747614010        0.3491743852       -0.1118576487
 H          0.0122207890       -0.2292439899       -1.4091016849
 H         -0.2625784199       -1.8442192433       -2.0606075185
 H         -2.3291435021       -0.4063738992       -1.9669988022
 H         -2.5169625895       -1.9173697975       -1.0721150035
 H         -2.2380255751       -0.3064329462        2.1358132100
 H         -2.4451229034       -1.8707374002        1.3281841052
 H         -0.1545635829       -1.7416345394        2.2036353768
 H          0.0849277071       -0.1605260401        1.4654518889
 H          2.3906122399       -3.5640481538        0.0487501949
 H         -0.3460938859        1.4480384082        0.0149457519
 H          0.4765530500        3.9813453373       -0.0873438048
 H          5.6282065829        0.1141079809       -0.1325916581
 H          2.9872788619        4.0001753953       -0.1668714519
 H          0.2337839009       -3.8023161320       -0.7795141067
 H          0.2752248638       -3.7602985779        0.9921285333
 H         -1.2292271472       -3.4535871230        0.1337700720
 H         -2.6060274875        2.4039138851       -0.7034404616
 H         -4.3734213909        2.6198597518       -0.7714950073
 H         -3.5622010740        1.6310959719       -2.0096795394
  42
        -67.91259811
 C         -0.1618620746       -3.2907942595       -0.1142699488
 C          0.1404551809       -1.7939295529       -0.0684043604
 C         -0.3970948994       -1.1098394550       -1.3419482056
 C         -1.9052409592       -0.8879079663       -1.2947525061
 N         -2.2489800735       -0.1616414332       -0.0867921165
 C         -1.9676585861       -0.9466882508        1.1007065123
 C         -0.4630046402       -1.1763813831        1.2091261234
 S         -3.7793072394        0.5083183023       -0.0836042328
 O         -4.0325729374        1.0225726067       -1.4127073994
 O         -4.7619139330       -0.4459038706        0.4066395306
 C         -3.6329763323        1.8762922254        1.0651148209
 N          1.5853327650       -1.5712362848       -0.0243132401
 C          2.5743529539       -2.5104439793       -0.0231376281
 N          3.7778614036       -2.0280399692        0.0264457755
 C          3.6125098708       -0.6647083734        0.0619295600
 C          2.2300760949       -0.3578801734        0.0290154632
 C          1.8595526875        0.9946316744        0.0557222336
 C          0.6835087712        1.7965190465        0.0377277911
 C          1.0922075453        3.0977551412        0.0911093657
 N          2.4519956800        3.1628318836        0.1437725725
 C          2.9550908477        1.9012766719        0.1212889778
 N          4.2604425839        1.6155568181        0.1552614976
 C          4.5823403117        0.3410626927        0.1237090463
 H          0.0918532013       -0.1464899691       -1.4685258320
 H         -0.1567448021       -1.7247809200       -2.2098202123
 H         -2.2312053261       -0.2777682331       -2.1375372499
 H         -2.4478288830       -1.8429361055       -1.3335667768
 H         -2.3199900926       -0.3866850805        1.9651501007
 H         -2.5195186911       -1.8952962815        1.0660650009
 H         -0.2633823657       -1.8363167726        2.0538375237
 H          0.0189873879       -0.2212507776        1.4056161179
 H          2.3824950967       -3.5623576735       -0.0595356853
 H         -0.3338304006        1.4632625883       -0.0223766386
 H          0.4996157988        3.9907225197        0.0935320884
 H          5.6347310502        0.1016179566        0.1475249458
 H          3.0103697586        3.9985341376        0.1858071816
 H          0.2658213966       -3.7479883252       -1.0028319334
 H          0.2240501961       -3.7935495317        0.7687639982
 H         -1.2373106396       -3.4361550346       -0.1440365572
 H         -2.6386192085        2.2840905849        0.9490810211
 H         -3.8122415187        1.5113867269        2.0663732733
 H         -4.3832403679        2.6017736520        0.7798447317
  42
        -67.91255294
 C          0.7768393743       -1.8820157320        2.2485860059
 C          0.0217115975       -1.2843791217        1.0545772952
 C         -1.0255629310       -2.3035190321        0.5779534345
 C         -1.9899607584       -1.7612481177       -0.4767611525
 N         -2.6189635447       -0.5425084878        0.0039413263
 C         -1.6288774704        0.4763189603        0.3036875557
 C         -0.7328004289        0.0000401572        1.4403654471
 S         -3.8102560916       -0.0030844306       -1.0437110746
 O         -4.1904072629        1.3285460141       -0.6223335910
 O         -3.3652121953       -0.1076370810       -2.4250496121
 C         -5.1744205602       -1.1266642122       -0.7503499564
 N          1.0020862295       -0.9753831617        0.0162016712
 C          1.1278026760       -1.5644366104       -1.2068749689
 N          2.0628334078       -1.0667458098       -1.9563602014
 C          2.6301878616       -0.0726168955       -1.1979688354
 C          1.9833257011       -0.0114667331        0.0617441381
 C          2.4782870385        0.9087500905        0.9992001991
 C          2.2629119480        1.3133209790        2.3463712897
 C          3.1676825520        2.2976378532        2.6193293484
 N          3.9412863331        2.5388224547        1.5260082374
 C          3.5582255374        1.7068709152        0.5231449928
 N          4.1449228025        1.6746443224       -0.6772706940
 C          3.6853284922        0.7830714126       -1.5268528519
 H         -0.5427324378       -3.2039366757        0.2000015410
 H         -1.6116938036       -2.5791436349        1.4542493742
 H         -1.4881014278       -1.5570329624       -1.4323075261
 H         -2.7782198158       -2.4907608060       -0.6585454559
 H         -1.0316988871        0.7072976471       -0.5932403613
 H         -2.1760751313        1.3762103605        0.5855135619
 H         -1.3522895721       -0.2073159776        2.3112135442
 H         -0.0394828512        0.8007507081        1.6800509613
 H          0.5254941565       -2.3876239134       -1.5298629972
 H          1.5501822743        0.9295950627        3.0473781390
 H          3.3120085764        2.8440807595        3.5297295908
 H          4.1609322696        0.7353795736       -2.4948469354
 H          4.6900966903        3.2070157237        1.4566863340
 H          0.1092185797       -2.0050815934        3.0949314242
 H          1.1823771502       -2.8537606335        1.9772166014
 H          1.6021314597       -1.2416062163        2.5414422955
 H         -5.0330023310       -2.0105179015       -1.3559849545
 H         -6.0756137189       -0.6021631743       -1.0400092664
 H         -5.1775540006       -1.3453710879        0.3080542475
  42
        -67.91251157
 C          0.7859087387       -1.9276237232       -2.2427605088
 C          0.0244847493       -1.3144257107       -1.0609677660
 C         -0.7272397391       -0.0350448340       -1.4678386058
 C         -1.6193813153        0.4624954461       -0.3375183417
 N         -2.6135575839       -0.5466161269       -0.0173371946
 C         -1.9891940483       -1.7642416129        0.4734471028
 C         -1.0286783588       -2.3233853878       -0.5760691704
 S         -3.7789097665        0.0204409373        1.0460860970
 O         -3.2983836561       -0.0509323333        2.4175978370
 O         -4.1662980027        1.3424905093        0.6019749578
 C         -5.1532091140       -1.1058813541        0.8165178640
 N          0.9981385687       -0.9932836142       -0.0198634549
 C          1.1179652907       -1.5726714066        1.2085577820
 N          2.0383495483       -1.0581997328        1.9647033357
 C          2.6017539261       -0.0624551541        1.2056124406
 C          1.9689522517       -0.0187291381       -0.0619414585
 C          2.4660650764        0.8979458748       -1.0016139310
 C          2.2658941173        1.2853564265       -2.3560938205
 C          3.1607742669        2.2796460277       -2.6255895014
 N          3.9147528891        2.5423968899       -1.5235341667
 C          3.5284856000        1.7149126461       -0.5181326405
 N          4.0993600604        1.7009576473        0.6902047626
 C          3.6412945103        0.8095898987        1.5408339052
 H         -0.0332733771        0.7600899258       -1.7231480296
 H         -1.3492059823       -0.2564021406       -2.3335056442
 H         -1.0198112248        0.7064692021        0.5544059818
 H         -2.1639104433        1.3596543710       -0.6330244008
 H         -1.4847029173       -1.5529925698        1.4259464092
 H         -2.7810757030       -2.4876078839        0.6631406999
 H         -1.6160111113       -2.6037698724       -1.4500456992
 H         -0.5520253171       -3.2232381422       -0.1890327131
 H          0.5237786369       -2.4024248618        1.5298500965
 H          1.5706419235        0.8831682759       -3.0643321902
 H          3.3107943952        2.8189241349       -3.5393763537
 H          4.1050661615        0.7754576522        2.5152379125
 H          4.6526743145        3.2222057375       -1.4491421856
 H          0.1228600054       -2.0621648968       -3.0909782236
 H          1.6122873531       -1.2901376160       -2.5393419367
 H          1.1905940736       -2.8954807259       -1.9566340380
 H         -5.1741917727       -1.3658300115       -0.2323500559
 H         -6.0468499359       -0.5647494039        1.0990921298
 H         -5.0069638757       -1.9660701759        1.4543542203
  42
        -67.91251131
 C          0.7750902649       -1.5019060780        2.4614236217
 C          0.0394023528       -1.1064285227        1.1746927288
 C         -0.9859484450       -2.2057220776        0.8437361652
 C         -1.9322489486       -1.8422834471       -0.3018608176
 N         -2.5716066643       -0.5773753658       -0.0104219650
 C         -1.6222880379        0.5030710824        0.1395381094
 C         -0.7293057893        0.2175991497        1.3442326367
 S         -3.9546076393       -0.2455594458       -0.8393790033
 O         -4.8126596022       -1.4057291686       -0.7185214631
 O         -4.4839897903        0.9930984476       -0.3084457617
 C         -3.5529913433       -0.0046246727       -2.5773378781
 N          1.0395377127       -0.9516472409        0.1202880449
 C          1.1976037603       -1.7246017369       -0.9923474041
 N          2.1468147128       -1.3410588725       -1.7894354764
 C          2.6939386409       -0.2382971278       -1.1819291153
 C          2.0182847728        0.0130398511        0.0388121681
 C          2.4881084207        1.0724295812        0.8311357789
 C          2.2391907750        1.6815743041        2.0927812307
 C          3.1339927816        2.7028537827        2.2288112260
 N          3.9327819037        2.7751221318        1.1294298274
 C          3.5767570662        1.7936908144        0.2607708727
 N          4.1914049218        1.5782633370       -0.9060899153
 C          3.7538825562        0.5627224195       -1.6166217895
 H         -0.4840784671       -3.1469385178        0.6223059442
 H         -1.5884463754       -2.3520695403        1.7398979920
 H         -1.3902668087       -1.7799152054       -1.2546054878
 H         -2.7262075376       -2.5846301629       -0.3897053933
 H         -1.0063482451        0.6129918292       -0.7654001473
 H         -2.1999081203        1.4143102656        0.2935439243
 H         -1.3541845444        0.1437416631        2.2328595659
 H         -0.0415412554        1.0497598519        1.4636109140
 H          0.6087934227       -2.5950295252       -1.1931070683
 H          1.5113932227        1.4078213623        2.8291977341
 H          3.2546682097        3.3856407957        3.0459075204
 H          4.2527492326        0.3676732423       -2.5538138833
 H          4.6787157424        3.4317351944        0.9729508750
 H          0.0895422433       -1.5059652354        3.3026665448
 H          1.1983381187       -2.4976085592        2.3514572697
 H          1.5850224953       -0.8110245227        2.6708648814
 H         -4.4778530152        0.2571341578       -3.0722552919
 H         -3.1611478796       -0.9356482201       -2.9619136557
 H         -2.8380918296        0.8032593333       -2.6462251374
  42
        -67.91246801
 C          0.7402452615       -1.8172700971        2.2596447377
 C          0.0156516211       -1.2425959905        1.0355597993
 C         -1.0222133420       -2.2719440183        0.5584995038
 C         -1.9714095068       -1.7501875809       -0.5202855728
 N         -2.6017612268       -0.5238780186       -0.0669738352
 C         -1.6163181025        0.5032709342        0.2107386512
 C         -0.7400937749        0.0546217153        1.3746337450
 S         -3.8659362176       -0.0421958775       -1.0493326113
 O         -4.1440209342        1.3494859999       -0.7621314007
 O         -3.5852298386       -0.3432246061       -2.4445184171
 C         -5.2341023168       -1.0411522780       -0.4707974888
 N          1.0221651683       -0.9596502938        0.0148138959
 C          1.1712901409       -1.5689282424       -1.1955062765
 N          2.1324459483       -1.0955747406       -1.9275775009
 C          2.6937249227       -0.0976027300       -1.1695963458
 C          2.0142564194       -0.0073601033        0.0710796984
 C          2.4935480434        0.9246655020        1.0051735405
 C          2.2435411853        1.3590029769        2.3370336285
 C          3.1509494198        2.3390298162        2.6166500258
 N          3.9599499841        2.5482957439        1.5426536281
 C          3.5962569875        1.7009941882        0.5454213772
 N          4.2161636869        1.6394050112       -0.6369811207
 C          3.7686504782        0.7389822297       -1.4836061146
 H         -0.5306226463       -3.1772890593        0.2044317280
 H         -1.6220468760       -2.5341655219        1.4295290611
 H         -1.4567186640       -1.5662741567       -1.4731288439
 H         -2.7583367423       -2.4808317901       -0.7037614258
 H         -1.0033610196        0.7047148314       -0.6823066884
 H         -2.1638846413        1.4129466509        0.4569393521
 H         -1.3744762544       -0.1270034985        2.2404343427
 H         -0.0461661684        0.8577312449        1.6043561823
 H          0.5639568750       -2.3868525582       -1.5227199131
 H          1.5054804660        0.9986591285        3.0240894544
 H          3.2741527990        2.9030401997        3.5194379037
 H          4.2711282381        0.6677940630       -2.4364516503
 H          4.7166876695        3.2083240438        1.4812050344
 H          1.5577199356       -1.1716040755        2.5622717667
 H          0.0508597317       -1.9256251048        3.0904333123
 H          1.1526912002       -2.7936209851        2.0164536979
 H         -5.2428539111       -0.9575473810        0.6066719799
 H         -5.0876292996       -2.0591478933       -0.8020768310
 H         -6.1338283373       -0.6221929416       -0.9022210697
  42
        -67.91245519
 C          0.2285015492       -0.8876006376        2.1113339295
 C         -0.0797783736       -0.7973870326        0.6144607372
 C         -0.9854100227       -1.9618514503        0.1808512652
 C         -2.3831698526       -1.8307887311        0.7942965361
 N         -3.0048217586       -0.5607400675        0.4980612125
 C         -2.1987104917        0.6046482550        0.7824976499
 C         -0.7876708069        0.5070639949        0.2000095476
 S         -4.0814245664       -0.4872127417       -0.7388846503
 O         -4.9387137200       -1.6495607803       -0.6227325051
 O         -4.7371459099        0.8018319111       -0.6513040729
 C         -3.2519054368       -0.5748358685       -2.3371708290
 N          1.1961008405       -0.8574492730       -0.1030705931
 C          1.6005248750       -1.8131162364       -0.9890535685
 N          2.7767139643       -1.6160113052       -1.4989490166
 C          3.2190157687       -0.4490399676       -0.9269643844
 C          2.2334464845        0.0442972957       -0.0353846557
 C          2.5223874718        1.2290370465        0.6593654401
 C          1.9395912036        2.0939023240        1.6271974114
 C          2.8328763413        3.0996214094        1.8568497479
 N          3.9446364660        2.9216862592        1.0926699008
 C          3.7946129871        1.7926700942        0.3527130928
 N          4.7198278746        1.3343395028       -0.4955195137
 C          4.4305089816        0.2188670741       -1.1277240235
 H         -1.0755200808       -1.9599608037       -0.9055220176
 H         -0.5596788095       -2.9139774068        0.4974667430
 H         -3.0509011591       -2.5991227216        0.4045922357
 H         -2.3336838322       -1.9399355032        1.8803840140
 H         -2.7334627625        1.4594916687        0.3686794339
 H         -2.1527748192        0.7250105975        1.8682228962
 H         -0.2152369093        1.3737254570        0.5201256196
 H         -0.8346558071        0.5278992883       -0.8905296567
 H          1.0075239100       -2.6664447605       -1.2430845409
 H          0.9897979272        2.0024394717        2.1137072058
 H          2.7468076164        3.9354088104        2.5221538039
 H          5.1714820537       -0.1636183371       -1.8131652722
 H          4.7573822712        3.5140665636        1.0695834001
 H          1.0086082019       -0.1848793216        2.3837150637
 H         -0.6524087128       -0.6771311194        2.7064246912
 H          0.5796384488       -1.8887426729        2.3509500868
 H         -4.0326172023       -0.4702638829       -3.0787423780
 H         -2.7754833556       -1.5410429946       -2.4215558472
 H         -2.5511755885        0.2449084138       -2.4054987300
  42
        -67.91244357
 C          0.2274833652       -0.8859269872       -2.1075267924
 C         -0.0765524707       -0.7992749625       -0.6095418005
 C         -0.7829131503        0.5037971824       -0.1884339671
 C         -2.1920544913        0.6063498997       -0.7741911960
 N         -3.0007321991       -0.5584953860       -0.4951003435
 C         -2.3810293706       -1.8300841761       -0.7889776114
 C         -0.9828145616       -1.9634524177       -0.1766442213
 S         -4.0892469811       -0.4830017087        0.7312224774
 O         -4.7412831600        0.8077192249        0.6385633919
 O         -4.9484002909       -1.6432313830        0.6065062898
 C         -3.2725082589       -0.5742143944        2.3356582052
 N          1.2015502347       -0.8621849393        0.1035956116
 C          1.6105322184       -1.8220373752        0.9828445867
 N          2.7884278144       -1.6259003799        1.4892576449
 C          3.2271445449       -0.4554113505        0.9217201581
 C          2.2376872629        0.0410408270        0.0361947111
 C          2.5227796894        1.2289409272       -0.6547260716
 C          1.9358868273        2.0968069072       -1.6173466525
 C          2.8262431791        3.1056667250       -1.8444736306
 N          3.9404265972        2.9264470408       -1.0840263247
 C          3.7949595769        1.7933278857       -0.3493359276
 N          4.7234172354        1.3327518383        0.4941043285
 C          4.4382604065        0.2135077628        1.1215427214
 H         -0.8328409176        0.5171447735        0.9021638626
 H         -0.2084966841        1.3718704596       -0.5010603791
 H         -2.7260911421        1.4609345211       -0.3589641517
 H         -2.1431543908        0.7306884527       -1.8594160520
 H         -3.0502749923       -2.5964720586       -0.3979105215
 H         -2.3320900617       -1.9418042872       -1.8748788154
 H         -0.5589117124       -2.9156597071       -0.4954592050
 H         -1.0709810395       -1.9632194676        0.9099370415
 H          1.0204572003       -2.6782365406        1.2344462461
 H          0.9854491574        2.0053854795       -2.1025070274
 H          2.7367215631        3.9447932481       -2.5050624827
 H          5.1832632645       -0.1716382342        1.8011364688
 H          4.7516821763        3.5208620615       -1.0600755694
 H         -0.6560975331       -0.6791282780       -2.6998505151
 H          1.0034579430       -0.1792815940       -2.3812913255
 H          0.5828277412       -1.8850658503       -2.3490441760
 H         -4.0595923462       -0.4802625777        3.0716231736
 H         -2.5785949455        0.2502278840        2.4139772455
 H         -2.7894023863       -1.5372135849        2.4173799123
  42
        -67.91241268
 C          0.7370353093       -1.8668840434        2.2514306911
 C          0.0243844545       -1.2961627291        1.0185590809
 C         -0.9744877145       -2.3445569723        0.5003965122
 C         -1.8906592573       -1.8236454135       -0.6054335967
 N         -2.5840345856       -0.6361006806       -0.1412815914
 C         -1.6485383157        0.4206942080        0.1936874931
 C         -0.7753321881       -0.0270038619        1.3613465774
 S         -3.8246446116       -0.1213899906       -1.1377786113
 O         -3.3530982487        0.8835033101       -2.0776307758
 O         -4.4262015222       -1.2935902571       -1.7386570568
 C         -4.9876020802        0.6111342039        0.0087624498
 N          1.0456419652       -0.9728141759        0.0244853051
 C          1.2494199605       -1.5757929500       -1.1811604593
 N          2.2098543629       -1.0651247049       -1.8887401610
 C          2.7140167215       -0.0479907132       -1.1162291219
 C          2.0017878727        0.0138439915        0.1074706959
 C          2.4274406271        0.9566301646        1.0566127069
 C          2.1352862938        1.3720388472        2.3860189232
 C          3.0022353638        2.3807896073        2.6909072025
 N          3.8234364779        2.6276491437        1.6343824197
 C          3.5115569762        1.7742453390        0.6249530603
 N          4.1600476362        1.7404853804       -0.5433023794
 C          3.7653746849        0.8275427624       -1.4026417360
 H         -0.4548258100       -3.2366232743        0.1530605801
 H         -1.6005896882       -2.6297196881        1.3453235151
 H         -1.3315657890       -1.5916202859       -1.5232091822
 H         -2.6540796881       -2.5616329082       -0.8541284994
 H         -1.0343187618        0.6796893512       -0.6819867154
 H         -2.2242393140        1.3034908554        0.4665446886
 H         -1.4166177256       -0.2454419822        2.2134814495
 H         -0.1081143477        0.7907387367        1.6170139026
 H          0.6842600414       -2.4180599539       -1.5223696474
 H          1.3997745918        0.9778028884        3.0568825148
 H          3.0881874814        2.9412515778        3.6001620835
 H          4.2913511581        0.7776923320       -2.3441328736
 H          4.5598384560        3.3118473083        1.5942075267
 H          0.0318455856       -2.0105802071        3.0633353820
 H          1.1854375612       -2.8262575978        2.0041396343
 H          1.5265132244       -1.2003976847        2.5826962921
 H         -5.1260857468       -0.1032806170        0.8076374389
 H         -5.9089036318        0.7718228061       -0.5357324605
 H         -4.5819758269        1.5476403576        0.3632982527
  42
        -67.91190541
 C          0.8252531729       -2.3015821062       -2.0728843652
 C         -0.1244055292       -1.6749037372       -1.0422262270
 C         -0.9599157724       -0.5341980575       -1.6776340381
 C         -2.4614126952       -0.6814994013       -1.4299381867
 N         -2.7327019321       -0.9612354216       -0.0353995364
 C         -2.1457872753       -2.2094976887        0.4377290542
 C         -1.0830172431       -2.7568392002       -0.5209528766
 S         -2.5427338359        0.3336376645        1.0006653238
 O         -1.3015577934        0.2627242355        1.7538236476
 O         -2.7365804370        1.5521160622        0.2415644362
 C         -3.9190467033        0.1140123137        2.1246935756
 N          0.7049094444       -1.1477948033        0.0427333919
 C          0.8760601435       -1.6836479418        1.2850347547
 N          1.6757781655       -1.0205734014        2.0608719827
 C          2.0866112575        0.0500040630        1.3064011796
 C          1.5007233464       -0.0280596351        0.0186414483
 C          1.8739487475        0.9425585943       -0.9221953328
 C          1.6608840325        1.2643374427       -2.2905325407
 C          2.3868752425        2.3881148924       -2.5561167694
 N          3.0484500499        2.7935336663       -1.4366065322
 C          2.7667777233        1.9327732730       -0.4235433447
 N          3.2850358767        2.0349803173        0.8045114163
 C          2.9500771459        1.0905332361        1.6570052941
 H         -0.6575169804        0.4195013605       -1.2424826884
 H         -0.7859902007       -0.4961226057       -2.7517718754
 H         -2.9629126444        0.2562093841       -1.6670533941
 H         -2.9012664643       -1.4830643439       -2.0243044102
 H         -1.7149064888       -2.0034466094        1.4194713517
 H         -2.9484035173       -2.9449077293        0.5487442480
 H         -1.5745498524       -3.1909983986       -1.3913160786
 H         -0.5285063235       -3.5559298883       -0.0312893068
 H          0.4157735959       -2.5951612419        1.6045416506
 H          1.0585512891        0.7370123874       -2.9995522022
 H          2.4789925623        2.9289972799       -3.4765071597
 H          3.3757526755        1.1517648350        2.6474187015
 H          3.6561430018        3.5908738455       -1.3546230881
 H          1.3790557093       -3.1206213602       -1.6193100102
 H          0.2639527742       -2.6838951770       -2.9196790047
 H          1.5389366742       -1.5616480380       -2.4247730237
 H         -3.8734841147        0.9103122912        2.8556548124
 H         -3.8118072867       -0.8519698215        2.5973848680
 H         -4.8203492402        0.1748870585        1.5318535249
  42
        -67.91152882
 C          0.0917068041       -0.8398220688        1.8738689923
 C          0.0178931029       -0.8036403550        0.3441480920
 C         -0.8225867296       -1.9792967708       -0.1833011817
 C         -2.2993881676       -1.8030539166        0.1711427519
 N         -2.7741640074       -0.5613651863       -0.3967149813
 C         -2.0858053452        0.6090361110        0.0993487308
 C         -0.5976496867        0.4917499388       -0.2220628691
 S         -4.3795143317       -0.4286846101       -0.7145314535
 O         -4.5716169559        0.7981440576       -1.4595791139
 O         -4.7891896024       -1.6493741373       -1.3777366968
 C         -5.2608618856       -0.2986111035        0.8493575824
 N          1.3883011517       -0.9000614716       -0.1616883075
 C          1.9134570096       -1.8891941770       -0.9405152552
 N          3.1556256116       -1.7157460027       -1.2717407849
 C          3.5159362923       -0.5286491450       -0.6834973436
 C          2.4105735863        0.0011255005        0.0284640381
 C          2.6018988250        1.2095245351        0.7164147290
 C          1.8881578144        2.1103758958        1.5552219166
 C          2.7438315767        3.1232293885        1.8777547973
 N          3.9552386120        2.9157291704        1.2936553745
 C          3.9092240949        1.7596233809        0.5821489842
 N          4.9480172810        1.2678572051       -0.0996632014
 C          4.7490299316        0.1284995372       -0.7242420148
 H         -0.7480791767       -2.0167489895       -1.2704822478
 H         -0.4682279647       -2.9216572595        0.2340266328
 H         -2.8933596241       -2.5995222965       -0.2772598925
 H         -2.4368168314       -1.8187787643        1.2589295354
 H         -2.5185791516        1.4686663610       -0.4123939212
 H         -2.2342959089        0.7222328571        1.1806629994
 H         -0.0764334896        1.3663858265        0.1576691774
 H         -0.4777013734        0.4723873897       -1.3070119259
 H          1.3568417003       -2.7479725135       -1.2522596623
 H          0.8761678222        2.0372075641        1.8977963249
 H          2.5666984605        3.9838879988        2.4912092197
 H          5.5822306536       -0.2815512348       -1.2745870328
 H          4.7656641583        3.5070820578        1.3672531182
 H          0.8445948855       -0.1470683932        2.2344267729
 H         -0.8605306108       -0.5803872501        2.3212099328
 H          0.3704535444       -1.8389372267        2.2007221440
 H         -4.9158141753        0.5945854820        1.3507330237
 H         -5.0609690460       -1.1962189378        1.4172770932
 H         -6.3119086172       -0.2222772005        0.6080922701
  42
        -67.91132554
 C          1.0316786550       -2.4743967275        1.7861440706
 C         -0.0902315141       -1.7276271160        1.0543030226
 C         -1.1114604339       -2.7525598138        0.5330553987
 C         -2.4713459599       -2.1064721071        0.1901975830
 N         -2.4041002507       -0.6683174569        0.0813346419
 C         -1.8643791893        0.0622774258        1.2090844445
 C         -0.8551604028       -0.7808626445        1.9929807508
 S         -2.5300451248        0.0967673171       -1.3628492899
 O         -1.5620680801        1.1735010974       -1.4401431266
 O         -2.5079638621       -0.8920211219       -2.4212900466
 C         -4.1691808279        0.8274902877       -1.3110716861
 N          0.5150701485       -0.9640466509       -0.0371550250
 C          0.3552629061       -1.1615616406       -1.3771991178
 N          1.0377296003       -0.3565747447       -2.1307864697
 C          1.6991952142        0.4676440851       -1.2548277837
 C          1.3955409086        0.0870434948        0.0756301353
 C          2.0331486204        0.7888709842        1.1111961895
 C          2.1433643625        0.7795383655        2.5303042027
 C          2.9890414510        1.7929732315        2.8759648584
 N          3.4206319149        2.4421284067        1.7607740194
 C          2.8704427442        1.8526387391        0.6673671087
 N          3.1261207762        2.2387436508       -0.5867532467
 C          2.5497806549        1.5387242376       -1.5390748468
 H         -0.7030931614       -3.2875434811       -0.3221775132
 H         -1.2643977711       -3.4843669981        1.3259856762
 H         -2.8401829233       -2.4635732442       -0.7703876285
 H         -3.2074115028       -2.3467563206        0.9631039328
 H         -1.3865470286        0.9534322051        0.7953798620
 H         -2.6814339713        0.3759505246        1.8684161018
 H         -1.3736383926       -1.3956677389        2.7279005791
 H         -0.1813013120       -0.1094436178        2.5147733025
 H         -0.2873942186       -1.9072720366       -1.7968509739
 H          1.6905570724        0.1046081516        3.2272555316
 H          3.3149424684        2.0936610381        3.8514456418
 H          2.7568450926        1.8289055951       -2.5582554349
 H          4.0565353067        3.2208912254        1.7278784409
 H          0.6550241076       -2.9093103219        2.7065077034
 H          1.4179296193       -3.2696488042        1.1527110103
 H          1.8509077127       -1.8032609377        2.0225488866
 H         -4.8802238290        0.0214502665       -1.1985333966
 H         -4.3189091684        1.3525008473       -2.2446428217
 H         -4.1955464531        1.5109109630       -0.4742419813
  42
        -67.91018423
 C         -0.2792725391       -0.5356942969       -1.7253206146
 C         -0.1237379950       -0.9415898584       -0.2541835325
 C         -0.7191226080        0.1321056533        0.6920440775
 C         -1.8290048893       -0.4218508135        1.5839420478
 N         -2.8496622771       -1.0753453078        0.7890688532
 C         -2.3507705340       -2.1512346589       -0.0631646827
 C         -0.8291083819       -2.2847115786       -0.0055911778
 S         -3.9089466998       -0.0448840163        0.0119103075
 O         -4.0277543598        1.1662233275        0.7962163312
 O         -3.5451446690        0.1591992383       -1.3836737185
 C         -5.4462443243       -0.9565824971        0.0830437768
 N          1.3074374312       -1.0865591560        0.0167501980
 C          1.9900874099       -2.2391722483        0.2798305828
 N          3.2673450732       -2.0860092728        0.4461115963
 C          3.4882122685       -0.7413961100        0.2778880146
 C          2.2589485791       -0.0942365519       -0.0023213633
 C          2.2883680050        1.2897605176       -0.2230277616
 C          1.4023924800        2.3551714561       -0.5377795603
 C          2.1553092381        3.4902575937       -0.6180724273
 N          3.4638198906        3.2035544557       -0.3719067160
 C          3.5844164609        1.8726689344       -0.1282199180
 N          4.7437528279        1.2661264194        0.1431514539
 C          4.6912863045       -0.0323923991        0.3435090732
 H          0.0635327125        0.5659561409        1.3140925468
 H         -1.1661080482        0.9303682092        0.0970237714
 H         -1.4516595249       -1.1358591280        2.3172114563
 H         -2.3205367989        0.3970625768        2.1088139884
 H         -2.8034724883       -3.0892738612        0.2703570607
 H         -2.6727851921       -1.9467461882       -1.0863638870
 H         -0.5247375263       -3.0088285489       -0.7611648639
 H         -0.5470664412       -2.6654007725        0.9760186380
 H          1.5220615667       -3.1988854038        0.3427503047
 H          0.3439659256        2.3035351702       -0.6883962864
 H          1.8406006923        4.4910611677       -0.8368831774
 H          5.6234801739       -0.5317752531        0.5593622201
 H          4.2298900889        3.8557026804       -0.3706333167
 H          0.0382297652       -1.3476817687       -2.3759950225
 H         -1.3159896829       -0.2896369156       -1.9426704840
 H          0.3322931888        0.3349741437       -1.9446738785
 H         -6.2126473056       -0.3444936242       -0.3739446231
 H         -5.6551297162       -1.1316154216        1.1283795683
 H         -5.3113262999       -1.8801104456       -0.4615325550
  42
        -67.91013492
 C          0.0989074027       -0.4881464484       -1.9189110491
 C          0.0407349298       -0.7551179624       -0.4118737143
 C         -0.5907792863        0.3894455031        0.4014059065
 C         -2.0817999713        0.5479529516        0.1205005049
 N         -2.7712518734       -0.7018169884        0.3923336095
 C         -2.2624838994       -1.7938722708       -0.4198133957
 C         -0.7837478153       -2.0181418315       -0.1165569670
 S         -4.4345097802       -0.5421730807        0.2955111799
 O         -4.8061598585        0.2210401432       -0.8867458174
 O         -5.0036929885       -1.8711111271        0.3670172338
 C         -4.8680772513        0.3688316730        1.7756263886
 N          1.4165957479       -0.9302765526        0.0559312378
 C          1.9637522356       -2.0509829946        0.6093504822
 N          3.2085313076       -1.9318660889        0.9537283699
 C          3.5483294902       -0.6457026259        0.6140525373
 C          2.4274718375        0.0030373912        0.0376788294
 C          2.5960318040        1.3280274121       -0.3932444616
 C          1.8606882660        2.3702135747       -1.0237380224
 C          2.7011666487        3.4384652538       -1.1452200485
 N          3.9226969431        3.1335528490       -0.6289432019
 C          3.8995920939        1.8565614621       -0.1668252067
 N          4.9531941622        1.2503028670        0.3881414122
 C          4.7751894128        0.0057012336        0.7714902285
 H         -0.4617462907        0.1547569581        1.4594094755
 H         -0.0878699551        1.3312491841        0.1997457092
 H         -2.4983247310        1.3050751025        0.7828567712
 H         -2.2652209804        0.8641368949       -0.9146160867
 H         -2.8456107807       -2.6766277327       -0.1552665010
 H         -2.4234102682       -1.5887962585       -1.4864416052
 H         -0.4305603253       -2.8581391591       -0.7142013357
 H         -0.6982354642       -2.2668507738        0.9412897068
 H          1.4197021615       -2.9619661470        0.7455571686
 H          0.8455273520        2.3532809007       -1.3652556009
 H          2.5055646646        4.4025403628       -1.5704568781
 H          5.6215471635       -0.4969102924        1.2144294568
 H          4.7266533100        3.7372535219       -0.5943437333
 H          0.8295292612        0.2821341816       -2.1427216167
 H          0.3956672649       -1.3961306818       -2.4392741202
 H         -0.8661611495       -0.1721202914       -2.3000594666
 H         -4.2035612389        0.0306178887        2.5580820544
 H         -5.8950589379        0.1156441157        2.0047662625
 H         -4.7682868825        1.4263278668        1.5758844229
  42
        -67.91004790
 C          0.0695622959       -0.4984376036        1.9022302570
 C          0.0170984073       -0.7345485004        0.3899485966
 C         -0.8423083638       -1.9662107913        0.0657718121
 C         -2.3204822411       -1.7082071703        0.3534576426
 N         -2.7851733918       -0.5806740466       -0.4366844155
 C         -2.0570428180        0.6384852062       -0.1289279080
 C         -0.5722745320        0.4423325417       -0.4096920249
 S         -4.4445517466       -0.3827795053       -0.3424854427
 O         -4.8955687298       -0.5059963962        1.0357641993
 O         -4.7689610005        0.8757045739       -0.9795469659
 C         -5.0973951764       -1.7306686014       -1.3251058553
 N          1.3914572355       -0.9424645877       -0.0684301413
 C          1.9094926416       -2.0688628841       -0.6383520768
 N          3.1603940566       -1.9814856623       -0.9694437786
 C          3.5357560517       -0.7129161683       -0.6033096353
 C          2.4295951418       -0.0406875681       -0.0247796118
 C          2.6350326171        1.2705529084        0.4315636980
 C          1.9258272936        2.3244942391        1.0723368912
 C          2.7979680360        3.3633302020        1.2220568569
 N          4.0154573547        3.0286819824        0.7145754357
 C          3.9568321434        1.7617564991        0.2282516379
 N          4.9964796924        1.1336475275       -0.3283761203
 C          4.7833508301       -0.0971210391       -0.7378362321
 H         -0.7491500731       -2.1965379601       -0.9955746542
 H         -0.5180129067       -2.8248523293        0.6531616081
 H         -2.9036892358       -2.5785728148        0.0572036686
 H         -2.4992566764       -1.5262820189        1.4204132323
 H         -2.4701211179        1.4198201269       -0.7677091922
 H         -2.2273103598        0.9317092807        0.9163218284
 H         -0.0447828179        1.3666207355       -0.1909691322
 H         -0.4460775318        0.2241053071       -1.4715797277
 H          1.3410485541       -2.9611618662       -0.7957199759
 H          0.9055159724        2.3358228958        1.3989922795
 H          2.6271941404        4.3256259421        1.6618306054
 H          5.6174137857       -0.6168868625       -1.1842739466
 H          4.8381934421        3.6073529414        0.6984516252
 H         -0.8952026543       -0.1837376213        2.2851997837
 H          0.3582899032       -1.4191889634        2.4043839662
 H          0.8036416922        0.2622628978        2.1460776884
 H         -4.4142591274       -1.8769010324       -2.1497129483
 H         -6.0686600875       -1.4118375331       -1.6803132666
 H         -5.1861109218       -2.6076149021       -0.6996810226
  42
        -67.90998192
 C          0.1386246668       -0.5236862726        1.9557959007
 C          0.0408353311       -0.7563650673        0.4450523052
 C         -0.7979354724       -2.0091563881        0.1440828531
 C         -2.2680319580       -1.7827136276        0.4902177108
 N         -2.7788702907       -0.6711284987       -0.2891214285
 C         -2.0843057577        0.5697686012       -0.0035688308
 C         -0.6019021183        0.4111567467       -0.3269533970
 S         -4.4390157017       -0.5145810724       -0.3368846862
 O         -5.0191727879       -1.8297983346       -0.1610238627
 O         -4.8902385085        0.4939845079        0.6091559670
 C         -4.7471669826        0.0429229012       -2.0088016373
 N          1.4040282144       -0.9283632891       -0.0598202859
 C          1.9312872066       -2.0382061062       -0.6529181470
 N          3.1693437270       -1.9186142045       -1.0206054829
 C          3.5251806699       -0.6434974672       -0.6568386872
 C          2.4212394411       -0.0020255258       -0.0408113147
 C          2.6078050334        1.3113546807        0.4176041129
 C          1.8926569759        2.3431803997        1.0872308904
 C          2.7426074403        3.4030100689        1.2160031972
 N          3.9513364704        3.1025797953        0.6678335577
 C          3.9099669726        1.8368817787        0.1765255577
 N          4.9479270379        1.2370253684       -0.4136398860
 C          4.7532251331        0.0033477261       -0.8234510892
 H         -0.7400919661       -2.2349874137       -0.9206746618
 H         -0.4330386842       -2.8630163669        0.7143398416
 H         -2.8645792179       -2.6551055288        0.2233820270
 H         -2.3976110941       -1.6000425769        1.5646718889
 H         -2.5218350309        1.3463956379       -0.6291281336
 H         -2.2381130400        0.8627106336        1.0429891252
 H         -0.0874909002        1.3446414767       -0.1162915503
 H         -0.5010982498        0.2003229962       -1.3929708462
 H          1.3788780870       -2.9424719567       -0.7997351452
 H          0.8844700682        2.3254499349        1.4488906052
 H          2.5621628028        4.3581163495        1.6673889536
 H          5.5865913328       -0.4935054076       -1.2964807663
 H          4.7583857205        3.7020109443        0.6299110430
 H          0.8800209353        0.2365185332        2.1782220162
 H         -0.8138555072       -0.2096017881        2.3684610270
 H          0.4422328322       -1.4450664314        2.4479396921
 H         -5.8205931632        0.0765234095       -2.1416642862
 H         -4.2944813239       -0.6857815026       -2.6659652613
 H         -4.3135134534        1.0248667318       -2.1312465060
  42
        -67.90991001
 C          0.1147660679       -0.5229334256        1.9445401076
 C          0.0214196928       -0.7283631136        0.4297584253
 C         -0.8476666937       -1.9537098368        0.1042972016
 C         -2.3174637025       -1.6959100891        0.4328684818
 N         -2.7888155126       -0.5537249345       -0.3270367808
 C         -2.0623553588        0.6602244105       -0.0068714424
 C         -0.5846944722        0.4673790898       -0.3294234727
 S         -4.4509919823       -0.4145326963       -0.3645212787
 O         -5.0360649888       -0.8563625527        0.8919399310
 O         -4.7763491006        0.9418223786       -0.7534481578
 C         -4.9248037189       -1.5312337715       -1.6801118596
 N          1.3831520001       -0.9291194322       -0.0684424025
 C          1.8849350923       -2.0454557938       -0.6715764127
 N          3.1271077256       -1.9532882594       -1.0329985130
 C          3.5135012603       -0.6919270062       -0.6534997642
 C          2.4235937798       -0.0295317345       -0.0342119544
 C          2.6430640788        1.2722595663        0.4422831264
 C          1.9530211561        2.3137352507        1.1231395067
 C          2.8306703531        3.3481702577        1.2708899856
 N          4.0338203266        3.0222733519        0.7249755130
 C          3.9600142547        1.7657514252        0.2143660947
 N          4.9838891249        1.1473876298       -0.3810661749
 C          4.7583921006       -0.0752148389       -0.8079577551
 H         -0.7815763465       -2.1651626163       -0.9629099677
 H         -0.5103946343       -2.8231324750        0.6679828930
 H         -2.9182701450       -2.5562549039        0.1419513845
 H         -2.4681003371       -1.5336834272        1.5071715099
 H         -2.4906703687        1.4557381532       -0.6166635290
 H         -2.2034865679        0.9303988537        1.0484172709
 H         -0.0480494655        1.3846869248       -0.1041194842
 H         -0.4856596670        0.2712481794       -1.3984406984
 H          1.3116009807       -2.9344471256       -0.8301757698
 H          0.9420492301        2.3196683614        1.4775439479
 H          2.6735472919        4.3014135774        1.7348015741
 H          5.5800628399       -0.5875865015       -1.2848655506
 H          4.8572907030        3.5995710008        0.6995985039
 H          0.8579936425        0.2302486416        2.1840354205
 H         -0.8381841271       -0.2129976550        2.3592044665
 H          0.4131533640       -1.4544432387        2.4205338502
 H         -5.9753850473       -1.3620017976       -1.8768253497
 H         -4.7540216169       -2.5465568367       -1.3526622636
 H         -4.3207571586       -1.2719009237       -2.5378364587
  42
        -67.90957001
 C          0.1851830605       -0.5939711669        2.0125535491
 C          0.0237214677       -0.7428564199        0.4969021583
 C         -0.8473735061       -1.9666511915        0.1656467683
 C         -2.3003192674       -1.7365899721        0.5823841747
 N         -2.8074993450       -0.5682514171       -0.1015348280
 C         -2.0884298655        0.6461426558        0.2122328226
 C         -0.6241587192        0.4780247752       -0.1855728805
 S         -4.4246480469       -0.4762242558       -0.4329066680
 O         -5.1205335087       -1.5560101486        0.2419284625
 O         -4.9018229697        0.8636906488       -0.1465056168
 C         -4.4891400713       -0.7545365132       -2.2004816937
 N          1.3631657913       -0.9103275393       -0.0705850291
 C          1.8448644421       -1.9949886734       -0.7436385983
 N          3.0693122603       -1.8769710991       -1.1549109793
 C          3.4642823544       -0.6303555029       -0.7372566884
 C          2.3984989691       -0.0045148555       -0.0426653245
 C          2.6298665507        1.2779505997        0.4788659077
 C          1.9626074312        2.2844582542        1.2313985254
 C          2.8388252407        3.3193955998        1.3843751583
 N          4.0194660013        3.0267956182        0.7742983799
 C          3.9323585367        1.7917513301        0.2155820575
 N          4.9333343114        1.2077321853       -0.4495060968
 C          4.6971201414        0.0029358932       -0.9191432465
 H         -0.8327361204       -2.1362269713       -0.9110321541
 H         -0.4718740832       -2.8531732090        0.6758356946
 H         -2.9241723764       -2.5799204422        0.2888093639
 H         -2.3847640052       -1.6211142461        1.6698144523
 H         -2.5533483094        1.4543892162       -0.3508471030
 H         -2.1803187383        0.8874340702        1.2789958340
 H         -0.0808033245        1.3881363831        0.0523984298
 H         -0.5700495187        0.3240082244       -1.2647222056
 H          1.2706290974       -2.8808190644       -0.9163411221
 H          0.9681583036        2.2667648133        1.6293284368
 H          2.6952015525        4.2514343626        1.8934939719
 H          5.5004132097       -0.4813566285       -1.4533477333
 H          4.8367709196        3.6122487675        0.7371032186
 H          0.4980123111       -1.5437011158        2.4408141825
 H          0.9435055294        0.1459685123        2.2457514446
 H         -0.7460864526       -0.2942915090        2.4798513355
 H         -5.5244838996       -0.6933944769       -2.5074063359
 H         -4.0850663629       -1.7394640812       -2.3858195858
 H         -3.8971097202        0.0187619620       -2.6687085518
  42
        -67.90942286
 C         -0.3993456468       -0.4422811477        1.5752980610
 C         -0.1409149543       -0.9788613931        0.1623523567
 C         -0.7993515980       -2.3578055446        0.0056192202
 C         -2.3264277927       -2.2710344703        0.0943426329
 N         -2.8644486904       -1.1417183579       -0.6479383721
 C         -1.9432980673       -0.5813257880       -1.6134689695
 C         -0.6931905323       -0.0258136209       -0.9269164898
 S         -3.8053133658       -0.0442114806        0.1786794564
 O         -3.8186874793       -0.3586171774        1.5971322922
 O         -3.4119311448        1.3127233290       -0.1520869269
 C         -5.4343530427       -0.3561840768       -0.4936665796
 N          1.3074929484       -1.1026726225       -0.0096214726
 C          2.0254715945       -2.2514166117       -0.1780228919
 N          3.3043514153       -2.0771882179       -0.3036729136
 C          3.4875435398       -0.7196551076       -0.2117182229
 C          2.2340972760       -0.0859417990       -0.0207757465
 C          2.2254723433        1.3109570301        0.1045250137
 C          1.3089076040        2.3771128387        0.3122176015
 C          2.0357596445        3.5317714537        0.3359716159
 N          3.3573440058        3.2575257795        0.1563780527
 C          3.5125804867        1.9156828994        0.0139402755
 N          4.6942046242        1.3206736316       -0.1736506207
 C          4.6771819434        0.0107154049       -0.2839044314
 H         -0.5201764918       -2.7769693960       -0.9616217350
 H         -0.4533551983       -3.0290930516        0.7910785427
 H         -2.7611151641       -3.1896392270       -0.3122900421
 H         -2.6530058734       -2.1623863057        1.1292506468
 H         -1.6993641368       -1.3620034629       -2.3355499232
 H         -2.4608741160        0.2282890456       -2.1259617584
 H         -0.9747812623        0.9219740599       -0.4715988992
 H          0.0740107603        0.1703542285       -1.6767213773
 H          1.5808191934       -3.2238130286       -0.2046755189
 H          0.2463187168        2.3196831774        0.4324299537
 H          1.6934122044        4.5382437424        0.4712801153
 H          5.6261631003       -0.4814103413       -0.4328438874
 H          4.1104706910        3.9242761273        0.1345360615
 H          0.1795569890        0.4593538343        1.7531345692
 H         -1.4524253307       -0.2060107872        1.7094040506
 H         -0.1095644726       -1.1845349178        2.3165148810
 H         -5.3770584828       -0.2020135929       -1.5616577015
 H         -6.1227026883        0.3401723574       -0.0338285341
 H         -5.6884546676       -1.3775229810       -0.2489543027
  42
        -67.90940162
 C         -0.4198954910       -0.4207438345        1.5416910717
 C         -0.1445940228       -0.9881086703        0.1439801665
 C         -0.7956959819       -2.3727824684        0.0139247625
 C         -2.3226114820       -2.2877633085        0.1151301191
 N         -2.8679112834       -1.1592340081       -0.6216480198
 C         -1.9675938496       -0.6177152867       -1.6165683812
 C         -0.6908521422       -0.0665612411       -0.9742784639
 S         -3.7818233829       -0.0411405827        0.2067800551
 O         -3.8666937768       -0.4111068318        1.6084877270
 O         -3.3090413869        1.3065574068       -0.0520355519
 C         -5.3952566225       -0.2417490740       -0.5411342126
 N          1.3058433613       -1.1064149328       -0.0117740256
 C          2.0303135666       -2.2530042210       -0.1644454061
 N          3.3092726526       -2.0734914476       -0.2823291007
 C          3.4850178357       -0.7143465618       -0.2015829707
 C          2.2269332275       -0.0848177570       -0.0264583260
 C          2.2104346216        1.3132891306        0.0843043646
 C          1.2877224487        2.3778538457        0.2741913947
 C          2.0095861313        3.5356077065        0.2936117161
 N          3.3335412107        3.2654333456        0.1267374899
 C          3.4955750492        1.9230440045       -0.0021110282
 N          4.6816569412        1.3318347252       -0.1724776815
 C          4.6718453570        0.0207526244       -0.2696837054
 H         -0.5232060479       -2.8047434925       -0.9495697105
 H         -0.4404846903       -3.0311879098        0.8061337796
 H         -2.7604895549       -3.2064663870       -0.2877155439
 H         -2.6424169541       -2.1796638980        1.1521388857
 H         -1.7506048314       -1.4099599168       -2.3349176426
 H         -2.4905276325        0.1903567764       -2.1260270611
 H         -0.9343962967        0.9075088060       -0.5554027297
 H          0.0680611110        0.0734257618       -1.7449109206
 H          1.5898930233       -3.2274948062       -0.1871068713
 H          0.2243323307        2.3178984651        0.3869317929
 H          1.6613255597        4.5415709922        0.4171327186
 H          5.6245193884       -0.4682615142       -0.4045502508
 H          4.0840727293        3.9350651338        0.1047804090
 H         -1.4712997709       -0.1671433597        1.6547686574
 H         -0.1522033276       -1.1521548472        2.3017070597
 H          0.1678459256        0.4762711489        1.7124677631
 H         -6.0630305846        0.4796086952       -0.0896547555
 H         -5.7147786683       -1.2532817597       -0.3365976561
 H         -5.2864308808       -0.0624499313       -1.6010039636
  42
        -67.90936667
 C          0.1301160303       -0.5125317203        1.9447462319
 C          0.0405489738       -0.7566477060        0.4353136796
 C         -0.7927331981       -2.0144850478        0.1394157988
 C         -2.2656397085       -1.7918223037        0.4751827432
 N         -2.7769925088       -0.6861955396       -0.3127335747
 C         -2.0861805282        0.5588713992       -0.0311940760
 C         -0.6022164172        0.4033324209       -0.3480927865
 S         -4.4382219750       -0.5196432900       -0.3239828479
 O         -5.0201549885       -1.8391839504       -0.1902007486
 O         -4.8616887396        0.4458020773        0.6791003072
 C         -4.7796832789        0.1201511965       -1.9661027003
 N          1.4067659639       -0.9285983836       -0.0613158937
 C          1.9406448802       -2.0430057046       -0.6399878141
 N          3.1807215280       -1.9238261647       -1.0009223657
 C          3.5313102547       -0.6445913255       -0.6466828503
 C          2.4221482030       -0.0001732866       -0.0432041436
 C          2.6038191149        1.3167803515        0.4068432342
 C          1.8827566116        2.3525751903        1.0639481012
 C          2.7313175268        3.4134305653        1.1933506203
 N          3.9449810872        3.1096325741        0.6582176390
 C          3.9075646210        1.8415850133        0.1729194676
 N          4.9497412154        1.2396671447       -0.4075412647
 C          4.7592213147        0.0031837087       -0.8107182096
 H         -0.7283121226       -2.2486431288       -0.9231765072
 H         -0.4282804728       -2.8626193870        0.7184257074
 H         -2.8571167022       -2.6677472932        0.2080216406
 H         -2.4037078548       -1.6043704252        1.5478814733
 H         -2.5264551650        1.3323474338       -0.6597625609
 H         -2.2447425625        0.8547447021        1.0137238724
 H         -0.0916281310        1.3399864318       -0.1422766295
 H         -0.4947955965        0.1843172334       -1.4118857448
 H          1.3911412779       -2.9497293078       -0.7824532064
 H          0.8714712474        2.3367688786        1.4168700073
 H          2.5465716974        4.3710389032        1.6376202429
 H          5.5962039519       -0.4957170171       -1.2751389349
 H          4.7526530952        3.7084632997        0.6244169796
 H          0.8615299124        0.2578587032        2.1652154221
 H         -0.8277048343       -0.2073555162        2.3517275246
 H          0.4426453000       -1.4271175172        2.4440223489
 H         -3.8360657528        0.3934144317       -2.4163791340
 H         -5.4346227712        0.9748954976       -1.8645144138
 H         -5.2546681768       -0.6787632760       -2.5185651437
  42
        -67.90929434
 C          0.5182565614       -1.4813264272       -2.1403829659
 C         -0.0596141725       -0.9301911683       -0.8309544358
 C         -0.7783345184        0.4180453604       -1.0590408923
 C         -1.9486657223        0.6294141934       -0.1057091978
 N         -2.9784596785       -0.3956889334       -0.2801673540
 C         -2.4656427429       -1.6428678632       -0.8300071054
 C         -1.0794992040       -1.9355568958       -0.2627442085
 S         -3.8623263665       -0.6012994161        1.1285108806
 O         -4.6995000373       -1.7710736530        0.9630539133
 O         -2.9958498768       -0.6330955121        2.2997102932
 C         -4.8894217330        0.8621524912        1.1799418283
 N          1.0561592083       -0.7387392821        0.0948840095
 C          1.3283684255       -1.4462697378        1.2287464204
 N          2.4161168878       -1.0917476031        1.8408682289
 C          2.9406021179       -0.0807891587        1.0730980582
 C          2.1002633809        0.1470834673       -0.0440877249
 C          2.4988677173        1.1246683058       -0.9682744407
 C          2.0713797987        1.6944174551       -2.1994344543
 C          2.9980312767        2.6332212292       -2.5486081890
 N          3.9835604957        2.6903624514       -1.6113317358
 C          3.7168814616        1.7842570160       -0.6354626361
 N          4.5015283798        1.5831633571        0.4277646023
 C          4.1135069676        0.6537454902        1.2725449158
 H         -0.0807044155        1.2394125428       -0.9106617826
 H         -1.1477741722        0.4601261629       -2.0824095295
 H         -1.5943037091        0.6166981407        0.9328330826
 H         -2.4100397535        1.5978136755       -0.3063945338
 H         -3.1744914395       -2.4209503365       -0.5467396552
 H         -2.4508231295       -1.5621894948       -1.9183926873
 H         -0.7781190419       -2.9569995568       -0.4917639345
 H         -1.1688690221       -1.8346676267        0.8207101323
 H          0.7071197817       -2.2388113509        1.5919020433
 H          1.1982580891        1.4511328607       -2.7683269524
 H          3.0195721561        3.2685305425       -3.4112530147
 H          4.7428369343        0.4763748490        2.1314745035
 H          4.7887196562        3.2933017895       -1.6247041700
 H          1.2160513664       -0.7770435874       -2.5815952469
 H          1.0514304338       -2.4091570649       -1.9434012819
 H         -0.2793368320       -1.6837521113       -2.8480610651
 H         -5.6526116488        0.6894966299        1.9275029741
 H         -5.3243470805        0.9705735746        0.1966301634
 H         -4.2681276838        1.7040885334        1.4500781422
  42
        -67.90904813
 C         -0.4667511798        1.5928772297        1.3422398782
 C         -0.5473817930        0.3732992252        0.4394765245
 C         -1.0959035943       -0.8272814001        1.2386028322
 C         -2.6020015105       -0.7238399181        1.4915461861
 N         -3.3604177873       -0.4575050804        0.2830934529
 C         -2.9280894468        0.7547371598       -0.3848236930
 C         -1.4525194343        0.6782738469       -0.7729579963
 S         -3.5652895961       -1.7740442163       -0.7291197175
 O         -4.1023193239       -1.2738404893       -1.9772442370
 O         -2.3609879215       -2.5809069856       -0.8676036474
 C         -4.8236474550       -2.7335458460        0.1122615232
 N          0.7776224727        0.0027277263       -0.0795630050
 C          0.8980410965       -1.0854272449       -0.9018723620
 N          2.0969544145       -1.3162975146       -1.3298476894
 C          2.8607992818       -0.3233392199       -0.7715248496
 C          2.0506407250        0.5308740344        0.0276048061
 C          2.7136769529        1.5987372443        0.6684274911
 C          2.4537889516        2.6984921700        1.5366339766
 C          3.6356488820        3.3433291015        1.7526596222
 N          4.6358339620        2.7212349050        1.0748611063
 C          4.1177773702        1.6598973080        0.4067286574
 N          4.8684535985        0.8542331926       -0.3487254278
 C          4.2345795606       -0.1354070693       -0.9335375051
 H         -0.9153715244       -1.7488031904        0.6867477764
 H         -0.5712181599       -0.8952260838        2.1925231424
 H         -2.9618034074       -1.6630879366        1.9079919542
 H         -2.8288609712        0.0797710164        2.1950438723
 H         -3.5399726637        0.8561479189       -1.2812054514
 H         -3.1291421845        1.5942026357        0.2824395898
 H         -1.1391272494        1.6156266738       -1.2347855956
 H         -1.3552853563       -0.1141555993       -1.5181039180
 H          0.0650265511       -1.7065083286       -1.1722929351
 H          1.5283871597        3.0076567111        1.9690514216
 H          3.8267136450        4.2113055023        2.3513351417
 H          4.8152718924       -0.8049779555       -1.5494669027
 H          5.6069019665        2.9829718569        1.0539969182
 H          0.1978003242        1.3894512497        2.1759874504
 H         -0.1111692898        2.4491548197        0.7781341661
 H         -1.4500166847        1.8258188955        1.7362654287
 H         -4.3549170915       -3.3172227882        0.8916191048
 H         -5.2708610930       -3.3796983011       -0.6319542792
 H         -5.5467255818       -2.0321388310        0.5028613367
  42
        -67.90865779
 C          0.1005661454       -2.7403056344        1.3959897238
 C         -0.0946432177       -1.5664321042        0.4301005084
 C         -0.9785676039       -1.9459715951       -0.7746153666
 C         -2.4519264910       -2.1148360000       -0.3957906309
 N         -2.9845823609       -0.9705932918        0.3161482345
 C         -2.2081359172       -0.6366030373        1.4914662505
 C         -0.7413721137       -0.3827674045        1.1456895520
 S         -3.4367438998        0.3128861029       -0.6553526889
 O         -3.3754749385        1.5271406081        0.1324279461
 O         -2.6912479251        0.3457152365       -1.9031686491
 C         -5.1499840694       -0.0688652528       -1.0087058269
 N          1.2311071878       -1.1961572009       -0.0887995600
 C          1.9192702285       -2.0909659527       -0.8599311955
 N          3.0787386051       -1.6879016904       -1.2669124021
 C          3.2082915276       -0.4287655933       -0.7412497887
 C          2.0489181852       -0.0873656893        0.0122075182
 C          2.0538667711        1.1854344663        0.6211254338
 C          1.2386644648        2.0217697435        1.4380596468
 C          1.9224030685        3.1818999088        1.6532644268
 N          3.1271829920        3.1359537654        1.0261746315
 C          3.2425131939        1.9441058412        0.3870162507
 N          4.3249026729        1.6142973074       -0.3219872072
 C          4.3004560426        0.4282977422       -0.8844164007
 H         -0.9099784178       -1.1478253087       -1.5183188056
 H         -0.6345656583       -2.8718200041       -1.2332537156
 H         -3.0372131445       -2.2363493156       -1.3063651924
 H         -2.5924266507       -2.9917572361        0.2393651430
 H         -2.6436404168        0.2702142521        1.9104124774
 H         -2.3185554916       -1.4511799444        2.2090910986
 H         -0.1896425983       -0.1673081906        2.0592524301
 H         -0.7124026674        0.4817912928        0.4785529719
 H          1.5310737079       -3.0575108494       -1.1075159105
 H          0.2600381514        1.8369709246        1.8239695712
 H          1.6220451555        4.0411648438        2.2187588575
 H          5.1619620081        0.1344428569       -1.4641961784
 H          3.8302052319        3.8554736342        1.0145146631
 H          0.7706830469       -2.4451034721        2.2002530456
 H         -0.8470957898       -3.0425204764        1.8274228459
 H          0.5348780670       -3.5949177563        0.8856829565
 H         -5.5345633647        0.7168521047       -1.6453987821
 H         -5.6666598262       -0.0935676835       -0.0601264622
 H         -5.1860677664       -1.0252054345       -1.5103017024
  42
        -67.90862725
 C          0.0911535068       -2.7635057268        1.3933638042
 C         -0.0949979245       -1.5804876494        0.4370071929
 C         -0.9732544066       -1.9454686177       -0.7764774623
 C         -2.4495744678       -2.1109784127       -0.4084174155
 N         -2.9814582526       -0.9698683758        0.3092888382
 C         -2.2115397159       -0.6511419183        1.4931282698
 C         -0.7412597160       -0.4008196953        1.1596750596
 S         -3.4169632716        0.3258511083       -0.6538884461
 O         -3.3689189182        1.5291206035        0.1516285376
 O         -2.6503396946        0.3759840233       -1.8883570529
 C         -5.1238227854       -0.0508337735       -1.0427166926
 N          1.2339182395       -1.2096689080       -0.0732708513
 C          1.9235841113       -2.1014394662       -0.8466599520
 N          3.0767776738       -1.6903910036       -1.2633325418
 C          3.1990787614       -0.4276518918       -0.7445170047
 C          2.0435016575       -0.0941598941        0.0184376138
 C          2.0445659570        1.1785456427        0.6275991322
 C          1.2343605927        2.0056704039        1.4588141899
 C          1.9087314001        3.1732761306        1.6627485564
 N          3.1023867808        3.1413217115        1.0138580123
 C          3.2209367345        1.9499806623        0.3744231335
 N          4.2967743194        1.6302951486       -0.3489276820
 C          4.2796572766        0.4410516976       -0.9046477512
 H         -0.8961754139       -1.1409616590       -1.5125361436
 H         -0.6296826800       -2.8684717700       -1.2412073577
 H         -3.0298497322       -2.2232612314       -1.3233333632
 H         -2.5978353020       -2.9919169872        0.2194375354
 H         -2.6454700525        0.2538662293        1.9175684368
 H         -2.3312618026       -1.4719061294        2.2022280688
 H         -0.1944563775       -0.1966075051        2.0788383349
 H         -0.7043633297        0.4698628202        0.5010187728
 H          1.5416452329       -3.0720810058       -1.0879162997
 H          0.2660554944        1.8085466559        1.8641810150
 H          1.6088990207        4.0291747540        2.2335853871
 H          5.1384345991        0.1547335800       -1.4922145858
 H          3.7981485309        3.8675880987        0.9909643608
 H         -0.8583583340       -3.0573813292        1.8264515529
 H          0.5131145385       -3.6198054046        0.8756716557
 H          0.7676215744       -2.4815220487        2.1970177597
 H         -5.1488630519       -0.9890889651       -1.5781625284
 H         -5.5027452377        0.7550954553       -1.6572513711
 H         -5.6538099458       -0.1103069199       -0.1030142999
  42
        -67.90863323
 C         -0.7550288882       -2.3175689060       -0.0939820126
 C         -0.1407882631       -0.9221274356        0.0367437188
 C         -0.6623833665       -0.0217267655       -1.1051304290
 C         -1.8774741126        0.8146334807       -0.6730179643
 N         -2.6954417733        0.1561703278        0.3179933220
 C         -2.0284756057       -0.1735895082        1.5651904068
 C         -0.5099262810       -0.3192253138        1.4022044463
 S         -3.9181846282       -0.8105269253       -0.2402703466
 O         -3.7197480023       -1.1192830336       -1.6442886176
 O         -4.0800707102       -1.9548760962        0.6385188208
 C         -5.3572786504        0.2430988741       -0.0799305187
 N          1.3188184908       -1.0256262772       -0.0425841401
 C          2.0407209389       -2.1821235624       -0.1296491439
 N          3.3264780065       -2.0197213050       -0.1572772534
 C          3.5127711392       -0.6620745262       -0.0801087010
 C          2.2537603282       -0.0151036802       -0.0021794603
 C          2.2568287287        1.3847814720        0.0898298526
 C          1.3411752687        2.4665062646        0.1903257435
 C          2.0764876846        3.6144613649        0.2459892575
 N          3.4040219203        3.3210688516        0.1853207298
 C          3.5540561020        1.9746437625        0.0907086286
 N          4.7401073013        1.3640929950        0.0154344003
 C          4.7140306018        0.0527444315       -0.0692099831
 H          0.1269791762        0.6491162981       -1.4433711825
 H         -0.9504226091       -0.6556652136       -1.9444730540
 H         -1.5702672813        1.7720880207       -0.2473652205
 H         -2.5112983886        1.0049048724       -1.5375514606
 H         -2.2413772899        0.6161440556        2.2930283375
 H         -2.4762876643       -1.1016967244        1.9223519714
 H         -0.1264968911       -0.9613180915        2.1959128597
 H         -0.0290283896        0.6527289059        1.4999741192
 H          1.5929273838       -3.1522315905       -0.1720604934
 H          0.2734258169        2.4203452093        0.2163551275
 H          1.7376552936        4.6279910924        0.3246018141
 H          5.6644024562       -0.4552395591       -0.1309900441
 H          4.1653556714        3.9782644399        0.2081053276
 H         -1.8387681737       -2.2449583094       -0.1184326141
 H         -0.4421969213       -2.7905034712       -1.0221313756
 H         -0.4782077465       -2.9503338482        0.7461295431
 H         -6.2093777692       -0.3026575247       -0.4622960348
 H         -5.1754585768        1.1369713779       -0.6593641754
 H         -5.4735891204        0.4625949571        0.9716863325
  42
        -67.90817409
 C          1.0480170534       -2.1585702742        2.2033817912
 C          0.0054492687       -1.5344510555        1.2704159697
 C         -1.0179349262       -2.6155644617        0.8814964132
 C         -2.3271823551       -1.9976774045        0.3610781145
 N         -2.0679642208       -0.6603059814       -0.1361027411
 C         -1.6961342183        0.2857179094        0.9023012927
 C         -0.7844002054       -0.3925618809        1.9343642206
 S         -3.1025603368       -0.0489586532       -1.2773752465
 O         -3.5992193539       -1.1628852326       -2.0578820493
 O         -4.1282979521        0.7758743715       -0.6559979342
 C         -2.0602757165        0.9816891968       -2.3050997765
 N          0.6912435209       -0.9973369793        0.0983956995
 C          0.4746414506       -1.3216436132       -1.2067034467
 N          1.1474681949       -0.6090455566       -2.0587589578
 C          1.8721314433        0.2707772869       -1.2921904911
 C          1.5919827541        0.0415406708        0.0778671291
 C          2.2482029691        0.8515632918        1.0175495190
 C          2.3366201522        1.0331675852        2.4257628064
 C          3.2131154588        2.0559090181        2.6447207721
 N          3.6825756682        2.5319183924        1.4592755325
 C          3.1209791604        1.8226800172        0.4462750235
 N          3.3820969842        2.0417890526       -0.8455812666
 C          2.7605865930        1.2667671036       -1.7067261608
 H         -0.5847186846       -3.2962838867        0.1514929582
 H         -1.2399367204       -3.1971965625        1.7753336076
 H         -2.7413121251       -2.5640935848       -0.4726153635
 H         -3.0841405589       -1.9631991888        1.1554158701
 H         -1.1716233336        1.1066465109        0.4092586380
 H         -2.5948667594        0.6952004461        1.3814512847
 H         -1.3780934775       -0.8184781073        2.7418091687
 H         -0.1183005268        0.3561640622        2.3537427832
 H         -0.2011525573       -2.0894983896       -1.5203747743
 H          1.8345312494        0.4861554109        3.1972660751
 H          3.5346013693        2.4775355710        3.5760339393
 H          2.9662419683        1.4321043953       -2.7533276977
 H          4.3423624515        3.2807308941        1.3326891411
 H          0.6126786034       -2.3476409316        3.1795479896
 H          1.3938982528       -3.1010720013        1.7859121978
 H          1.9070317822       -1.5073871838        2.3201902560
 H         -1.9068808790        1.9243686541       -1.7995249280
 H         -2.5901922353        1.1273863549       -3.2369862344
 H         -1.1315113499        0.4495888652       -2.4695225297
  42
        -67.90781355
 C          0.4752496990       -1.4770477915       -2.0824679892
 C         -0.0348656462       -0.9215594727       -0.7472439213
 C         -0.7198511998        0.4510278734       -0.9321772262
 C         -1.8604417231        0.6584990402        0.0542119082
 N         -2.9280976049       -0.3049278583       -0.1947780959
 C         -2.4585141468       -1.5990037813       -0.6755201894
 C         -1.0601931682       -1.8999569211       -0.1445636105
 S         -4.0220824525       -0.4177824990        1.0621129925
 O         -3.6980203325       -1.5260139072        1.9489421322
 O         -4.0921132548        0.8782688939        1.7029333975
 C         -5.5659064130       -0.7491505632        0.2195921842
 N          1.1205624418       -0.7738653605        0.1370736167
 C          1.4110734155       -1.4988549304        1.2553034309
 N          2.5260390862       -1.1768676332        1.8357839893
 C          3.0504525284       -0.1713026522        1.0610589107
 C          2.1808803907        0.0875450715       -0.0267607503
 C          2.5741583428        1.0627900616       -0.9553010961
 C          2.1218178865        1.6524449112       -2.1678219567
 C          3.0602706580        2.5703157921       -2.5402107879
 N          4.0768564503        2.5951458676       -1.6349326040
 C          3.8183129282        1.6889098118       -0.6569464812
 N          4.6308134442        1.4596702794        0.3793583591
 C          4.2465322265        0.5329868154        1.2289643416
 H          0.0006521018        1.2520056175       -0.7834641890
 H         -1.1183009357        0.5261081707       -1.9425478033
 H         -1.4967927295        0.5740665862        1.0872926670
 H         -2.2960116228        1.6529105178       -0.0559371409
 H         -3.1522485531       -2.3543826157       -0.3082293890
 H         -2.4792703048       -1.5903226002       -1.7671500685
 H         -0.7848910067       -2.9285986798       -0.3746620487
 H         -1.1171362201       -1.7928817629        0.9398523206
 H          0.7841377906       -2.2818567541        1.6290314191
 H          1.2233451458        1.4369163168       -2.7076580197
 H          3.0704612762        3.2115667947       -3.3986761909
 H          4.8979821921        0.3334115317        2.0663060853
 H          4.8956381285        3.1786108830       -1.6694303281
 H          0.9777110600       -2.4275920511       -1.9161275164
 H         -0.3525283386       -1.6355464661       -2.7658868648
 H          1.1854903403       -0.7941690982       -2.5372876460
 H         -5.4726035280       -1.6820760087       -0.3175397923
 H         -5.7346055673        0.0844704119       -0.4468433838
 H         -6.3386254355       -0.8110849649        0.9745571445
  42
        -67.90778997
 C          0.4606059945       -1.4360679612        2.0834197510
 C         -0.0287541485       -0.9059772444        0.7301387045
 C         -1.0456280475       -1.8944890567        0.1303789500
 C         -2.4475652282       -1.6002479512        0.6555782986
 N         -2.9235880484       -0.3071451790        0.1780718989
 C         -1.8606579160        0.6501227210       -0.1073022794
 C         -0.7143532145        0.4711144724        0.8783290568
 S         -4.0600833729       -0.4205942731       -1.0403103040
 O         -4.1528400481        0.8749288917       -1.6791110503
 O         -3.7648483713       -1.5293323776       -1.9365091207
 C         -5.5731046203       -0.7542517176       -0.1448659451
 N          1.1404366000       -0.7782340550       -0.1389847823
 C          1.4469301577       -1.5261063504       -1.2377402274
 N          2.5728281187       -1.2194613387       -1.8053014649
 C          3.0878525053       -0.2005783024       -1.0417760784
 C          2.2007632535        0.0827926979        0.0255704524
 C          2.5812501351        1.0750085579        0.9411753223
 C          2.1090361471        1.6909766355        2.1327439034
 C          3.0445791393        2.6122611935        2.5038979163
 N          4.0780583932        2.6143385009        1.6174867924
 C          3.8333432560        1.6899139117        0.6531168248
 N          4.6631143386        1.4368158223       -0.3636803761
 C          4.2896508659        0.4956867062       -1.2021757816
 H         -1.0966690575       -1.7955360697       -0.9550642941
 H         -0.7653369207       -2.9197315023        0.3696154294
 H         -3.1356023483       -2.3591781035        0.2842036149
 H         -2.4712958417       -1.5946839412        1.7473664330
 H         -1.5040852685        0.5383309321       -1.1403932258
 H         -2.2978893128        1.6460690928       -0.0213078437
 H         -1.1092430558        0.5743368038        1.8876567566
 H          0.0051165177        1.2680757061        0.7042091387
 H          0.8231998439       -2.3140163273       -1.6065676230
 H          1.1992173545        1.4904451190        2.6590859833
 H          3.0417170982        3.2710020737        3.3490509915
 H          4.9547712964        0.2775969076       -2.0240543167
 H          4.8986616791        3.1950148342        1.6551212955
 H          1.1671428319       -0.7463007516        2.5336662072
 H         -0.3767196937       -1.5774392178        2.7588868734
 H          0.9617662697       -2.3915155833        1.9434392817
 H         -6.3709081844       -0.8216431988       -0.8728538492
 H         -5.7225201895        0.0803946913        0.5249033614
 H         -5.4574215832       -1.6851561373        0.3915907673
  42
        -67.90778268
 C          0.2340844537       -2.3765394821        1.9863860559
 C         -0.1110226889       -1.4725679167        0.7959269024
 C         -1.0807622647       -2.1854510897       -0.1673572967
 C         -1.4833690197       -1.2569337170       -1.3115495934
 N         -2.1205291657       -0.0530736771       -0.8157835685
 C         -1.3066993878        0.6668787118        0.1470449412
 C         -0.8439432298       -0.2298842174        1.2968850784
 S         -3.7313329500       -0.1959910003       -0.3989770606
 O         -4.2933691039       -1.3122560578       -1.1312564451
 O         -3.9227315206       -0.2471991007        1.0419962717
 C         -4.4315070644        1.3263873740       -1.0290928145
 N          1.1433853480       -1.1601498262        0.0987773623
 C          1.7785862363       -2.1496297348       -0.6015715770
 N          2.9200622113       -1.8181390854       -1.1097879552
 C          3.1027325680       -0.5156285914       -0.7259175501
 C          1.9961947091       -0.0713919950        0.0520259895
 C          2.0669203268        1.2555896137        0.5280549460
 C          1.3209356824        2.1920001896        1.3014687266
 C          2.0428294933        3.3474704009        1.3626417610
 N          3.2049092756        3.2062673701        0.6736099908
 C          3.2566109661        1.9542373270        0.1528392991
 N          4.2873076094        1.5265229023       -0.5801408208
 C          4.2033267637        0.2921893763       -1.0177982236
 H         -0.6644811448       -3.1067838250       -0.5682374288
 H         -1.9836242154       -2.4429704614        0.3913656273
 H         -0.6100574231       -0.9575522967       -1.8978675195
 H         -2.2036911972       -1.7496257951       -1.9638522080
 H         -0.4558434562        1.0847633820       -0.3956939877
 H         -1.9144670474        1.4803706296        0.5407769583
 H         -1.7336631009       -0.5600064866        1.8365666460
 H         -0.2126756378        0.3095799630        1.9956408530
 H          1.3692438471       -3.1317955980       -0.7174642345
 H          0.3653877495        2.0734071430        1.7633380017
 H          1.7974383933        4.2654051340        1.8578976521
 H          5.0218432892       -0.0834946196       -1.6123290739
 H          3.9264118700        3.8975356099        0.5563749171
 H         -0.6693815747       -2.6365891442        2.5300259925
 H          0.7137917754       -3.2918826928        1.6497757217
 H          0.9116772589       -1.8595538270        2.6622627910
 H         -5.4967401125        1.2935280010       -0.8411173631
 H         -4.2208652844        1.3492954648       -2.0885700399
 H         -3.9730245966        2.1558581644       -0.5102798192
  42
        -67.90772663
 C          0.8190456991       -2.0538022664       -2.2618067721
 C         -0.0972084057       -1.5188401991       -1.1520522269
 C         -0.9485075715       -0.3261542018       -1.6573184981
 C         -2.4439685585       -0.4774678241       -1.3572638346
 N         -2.7002185041       -0.9582376352       -0.0210344174
 C         -2.0833155171       -2.2265473238        0.3287815348
 C         -1.0321509163       -2.6501152438       -0.7003516286
 S         -2.9473352452        0.1327829716        1.1735902448
 O         -3.8554437194        1.1343700382        0.6525425537
 O         -3.4062414966       -0.6095725049        2.3293283086
 C         -1.4167235001        0.9694657544        1.6327875201
 N          0.7665453878       -1.0820104088       -0.0550329391
 C          0.9533113626       -1.6976560076        1.1489290305
 N          1.8036169909       -1.1081773258        1.9325786102
 C          2.2503864968       -0.0230454719        1.2196674051
 C          1.6196424804       -0.0020290922       -0.0485800277
 C          1.9958602868        1.0101475370       -0.9432528147
 C          1.7298725616        1.4349003299       -2.2730371364
 C          2.5028231416        2.5355798349       -2.5029475983
 N          3.2390563491        2.8308605852       -1.3963085112
 C          2.9631534657        1.9203050989       -0.4275580388
 N          3.5387261084        1.9171426015        0.7784175075
 C          3.1854457920        0.9475408516        1.5923171968
 H         -0.5835116736        0.5932423552       -1.2041541606
 H         -0.8398288560       -0.2323024899       -2.7367271814
 H         -2.9531388132        0.4825767102       -1.4385478161
 H         -2.9119302601       -1.1740050671       -2.0569182378
 H         -1.6697461726       -2.1223029990        1.3332817424
 H         -2.8669217509       -2.9907985863        0.3811961408
 H         -1.5448247428       -3.0086711239       -1.5923276987
 H         -0.4572985802       -3.4852738769       -0.3025623564
 H          0.4595752929       -2.6025694230        1.4347370155
 H          1.0630804222        0.9909619792       -2.9813645900
 H          2.5768300659        3.1318369190       -3.3902716031
 H          3.6534858572        0.9272528640        2.5646492629
 H          3.8946616731        3.5875388657       -1.2970141901
 H          1.3846119653       -2.9083830468       -1.8971204836
 H          0.2316585754       -2.3659904852       -3.1193544342
 H          1.5233418265       -1.2883787879       -2.5743167548
 H         -1.6673380558        1.5876015511        2.4839380254
 H         -1.0947617106        1.5791986939        0.8009298153
 H         -0.6819653555        0.2273633019        1.9122020861
  42
        -67.90769932
 C          0.2127702737       -2.3928054132       -1.9602512609
 C         -0.1196312017       -1.4744978283       -0.7772159644
 C         -0.8559584604       -0.2369522715       -1.2866717622
 C         -1.3067393693        0.6728739836       -0.1424063789
 N         -2.1137169018       -0.0322812933        0.8381502874
 C         -1.4712072563       -1.2311167503        1.3406724157
 C         -1.0827200379       -2.1739215241        0.2029613658
 S         -3.7216907528       -0.2088895906        0.4206866027
 O         -3.9052755354       -0.5369605187       -0.9855105616
 O         -4.3083940363       -1.1567210749        1.3448278961
 C         -4.4009004860        1.4194161653        0.7369282723
 N          1.1414577371       -1.1576266479       -0.0941531409
 C          1.7802239660       -2.1413633936        0.6108385683
 N          2.9233333431       -1.8052011709        1.1123819423
 C          3.1030169921       -0.5051472280        0.7188155769
 C          1.9934851677       -0.0679803244       -0.0587015629
 C          2.0621590244        1.2544945940       -0.5470031302
 C          1.3143745215        2.1821991235       -1.3288855064
 C          2.0349622186        3.3377291602       -1.4024494121
 N          3.1978125891        3.2046807357       -0.7130614923
 C          3.2514512316        1.9579996084       -0.1798116983
 N          4.2839291831        1.5378024485        0.5551635587
 C          4.2029459223        0.3066043587        1.0021015718
 H         -0.2301219772        0.2940043496       -1.9967632185
 H         -1.7493096518       -0.5764330120       -1.8142143184
 H         -0.4485679917        1.0904588906        0.3892006697
 H         -1.9113259498        1.4886465324       -0.5347514529
 H         -0.5907226126       -0.9251932528        1.9129475950
 H         -2.1843979218       -1.7124059364        2.0096826483
 H         -1.9909105964       -2.4344577599       -0.3455105385
 H         -0.6654137979       -3.0919054085        0.6103863837
 H          1.3721280588       -3.1230200658        0.7352674633
 H          0.3592055859        2.0569171637       -1.7895767723
 H          1.7882906039        4.2504767077       -1.9065535178
 H          5.0233927774       -0.0636173625        1.5974661892
 H          3.9186660968        3.8978431351       -0.6035536738
 H          0.8842644960       -1.8847004710       -2.6488552608
 H          0.6946159436       -3.3048706240       -1.6179096100
 H         -0.6967260140       -2.6579750998       -2.4912710909
 H         -5.4676929585        1.2907673542        0.8661387930
 H         -4.1927523700        2.0567083958       -0.1105871697
 H         -3.9404584282        1.7820151746        1.6445532494
  42
        -67.90769779
 C          0.4850286639       -1.5017568378       -2.0744852202
 C         -0.0501819450       -0.9220458502       -0.7594085407
 C         -0.7299502082        0.4474715033       -0.9829365539
 C         -1.8844873669        0.6775155783       -0.0183268256
 N         -2.9533859054       -0.2905811769       -0.2527276575
 C         -2.4760637366       -1.5885145106       -0.7181100875
 C         -1.0883319518       -1.8887335981       -0.1599057132
 S         -3.9773081903       -0.4076117932        1.0647084475
 O         -3.4637839190       -1.3484932889        2.0506423944
 O         -4.1905065273        0.9346525828        1.5616939954
 C         -5.5029045572       -1.0311505606        0.3593389144
 N          1.0885689616       -0.7598960651        0.1437472033
 C          1.3565101416       -1.4658348862        1.2797251341
 N          2.4644497719       -1.1404819523        1.8717079122
 C          3.0075915903       -0.1526911193        1.0871172162
 C          2.1565028708        0.0924211896       -0.0185224267
 C          2.5691503011        1.0508131016       -0.9562816666
 C          2.1379782238        1.6256946585       -2.1835126602
 C          3.0861326364        2.5342909307       -2.5542527618
 N          4.0894172953        2.5666007153       -1.6346422114
 C          3.8119414536        1.6750899489       -0.6485001777
 N          4.6089696479        1.4558876520        0.4017164578
 C          4.2063329778        0.5457013994        1.2605471572
 H         -0.0105739622        1.2504178232       -0.8391112734
 H         -1.1124964385        0.5030128266       -2.0007807580
 H         -1.5348427122        0.6135472865        1.0215537675
 H         -2.3182144090        1.6695376731       -0.1555153615
 H         -3.1787625858       -2.3411691756       -0.3654225835
 H         -2.4768007619       -1.5823205395       -1.8097338262
 H         -0.8121737710       -2.9211412692       -0.3710853788
 H         -1.1644193189       -1.7656467409        0.9216566747
 H          0.7176796481       -2.2366445473        1.6585566440
 H          1.2468494969        1.4070553846       -2.7339968773
 H          3.1117251571        3.1640901411       -3.4207884694
 H          4.8449576412        0.3547315513        2.1097640668
 H          4.9102251152        3.1475695529       -1.6618194184
 H          1.2013385504       -0.8256603789       -2.5299273297
 H          0.9872104382       -2.4472506086       -1.8805907189
 H         -0.3299745055       -1.6762040390       -2.7693117270
 H         -5.4424509383       -2.1070423952        0.2753637194
 H         -5.6183067502       -0.5510939803       -0.6020493355
 H         -6.2965208762       -0.7423176297        1.0359436155
  42
        -67.90763100
 C          0.2343928344       -2.2734042857        2.0709229804
 C         -0.1216154986       -1.4221238354        0.8451940063
 C         -1.1161611412       -2.1702382981       -0.0627082323
 C         -1.5693698649       -1.2936619781       -1.2306453486
 N         -2.1442835625       -0.0391599986       -0.7820352546
 C         -1.2681209491        0.7030279830        0.1032678861
 C         -0.8319835880       -0.1466036054        1.2965167626
 S         -3.7485913883       -0.1284314972       -0.3280261253
 O         -4.0990211680       -1.4396003820        0.1947840482
 O         -4.0331373801        0.9806321078        0.5592127592
 C         -4.6049796131        0.1310138346       -1.8783130063
 N          1.1253717065       -1.1546645337        0.1163829093
 C          1.7382542452       -2.1798160872       -0.5520690972
 N          2.8863885477       -1.8901751790       -1.0706305214
 C          3.0990954594       -0.5809808489       -0.7273575629
 C          2.0027453110       -0.0873326666        0.0352362337
 C          2.1003952579        1.2540315215        0.4638035231
 C          1.3693564370        2.2344374421        1.1957458517
 C          2.1167173939        3.3749509914        1.2207751278
 N          3.2810508340        3.1828663028        0.5476893359
 C          3.3077584658        1.9121914087        0.0720373158
 N          4.3312084264        1.4363965099       -0.6409490810
 C          4.2189991142        0.1913748513       -1.0405495589
 H         -0.7050616431       -3.1011678743       -0.4462221471
 H         -1.9961073858       -2.4162370830        0.5341482704
 H         -0.7261541637       -1.0554157888       -1.8853184226
 H         -2.3317239512       -1.8175982161       -1.8052409937
 H         -0.4101448700        1.0349090571       -0.4852318009
 H         -1.8314012195        1.5722540785        0.4417999815
 H         -1.7329382746       -0.4370598412        1.8428224953
 H         -0.1949512555        0.4076708224        1.9783211975
 H          1.3084086284       -3.1563287591       -0.6360230304
 H          0.4038921562        2.1570354971        1.6459869137
 H          1.8867550898        4.3158666867        1.6790171832
 H          5.0302536677       -0.2204549211       -1.6207837980
 H          4.0171506639        3.8544529885        0.4089409007
 H          0.9314079720       -1.7344213793        2.7090073456
 H         -0.6616636117       -2.4954789962        2.6429493961
 H          0.6959594985       -3.2098363764        1.7688069154
 H         -5.6664548147        0.1088031792       -1.6694676710
 H         -4.3283823891       -0.6620704900       -2.5578617767
 H         -4.2973861618        1.0995480253       -2.2452046022
  42
        -67.90747950
 C          0.6430016687       -1.7940069448        2.2265769942
 C         -0.0179150864       -1.3308200023        0.9234087094
 C         -0.9186745757       -2.4663183356        0.4104777365
 C         -1.9283890810       -1.9811195762       -0.6209999176
 N         -2.8543250995       -1.0213228578       -0.0227042064
 C         -2.3730912051       -0.3873192251        1.1950597184
 C         -0.8839421491       -0.0638455246        1.1223160502
 S         -3.5189540976        0.0516559754       -1.1152652426
 O         -2.8458824350        1.3415477264       -1.0783309410
 O         -3.5378232182       -0.5925882571       -2.4118340827
 C         -5.1977418273        0.2321279995       -0.5201920252
 N          1.0379915099       -1.0164773379       -0.0397781908
 C          1.2724501227       -1.6079817880       -1.2463011220
 N          2.2480170891       -1.0884003179       -1.9254806656
 C          2.7187755940       -0.0649828491       -1.1405232833
 C          1.9652722578       -0.0037626370        0.0579124618
 C          2.3179773266        0.9792520996        0.9949076263
 C          1.9375146067        1.4412545229        2.2842380257
 C          2.7627918060        2.4805125018        2.6001428116
 N          3.6431404124        2.7029384289        1.5865531909
 C          3.4056578001        1.8077917840        0.5931289028
 N          4.1111414408        1.7566897274       -0.5408189423
 C          3.7674693421        0.8219751787       -1.3988669640
 H         -0.3184083399       -3.2711166844       -0.0096110198
 H         -1.4628146182       -2.8788778351        1.2588323589
 H         -1.4242137711       -1.5163743363       -1.4766295238
 H         -2.5242598013       -2.8132660269       -1.0037883393
 H         -2.9303660033        0.5410891430        1.3109977968
 H         -2.5951927167       -1.0445047687        2.0380706753
 H         -0.5947184314        0.4632701863        2.0276006769
 H         -0.7376236891        0.6163536749        0.2788634790
 H          0.7108342185       -2.4390826716       -1.6186211616
 H          1.1612921158        1.0662841571        2.9175271485
 H          2.7802126930        3.0797076088        3.4883845281
 H          4.3310987975        0.7659573016       -2.3178845523
 H          4.3622291152        3.4059391968        1.5602453120
 H         -0.0975515880       -1.8548376553        3.0176576257
 H          1.0874114255       -2.7760837697        2.0841481639
 H          1.4280878670       -1.1087378906        2.5280111306
 H         -5.6198036405       -0.7623724631       -0.4902692540
 H         -5.7232346291        0.8605476037       -1.2271593712
 H         -5.1710061571        0.6889333739        0.4589785801
  42
        -67.90742953
 C          0.6240280908       -1.7205861630        2.2298289111
 C         -0.0129410806       -1.2824653967        0.9064353448
 C         -0.9106267925       -2.4255509060        0.4041663289
 C         -1.9253247731       -1.9475778685       -0.6255342879
 N         -2.8650289220       -1.0107127945       -0.0133102829
 C         -2.3633488735       -0.3337856077        1.1737745142
 C         -0.8772910348       -0.0084176138        1.0602747540
 S         -3.6082763265        0.0128935365       -1.1029800170
 O         -2.9928704324        1.3316859066       -1.1038137531
 O         -3.6339954786       -0.6514428243       -2.3892978142
 C         -5.2754832118        0.1268290852       -0.4609123380
 N          1.0592662926       -0.9923242507       -0.0461345552
 C          1.2969610139       -1.5963820846       -1.2458092202
 N          2.2925029914       -1.1020557199       -1.9148314567
 C          2.7745128037       -0.0838587335       -1.1299355470
 C          2.0045484945        0.0032346066        0.0565782789
 C          2.3609105086        0.9899187530        0.9885262348
 C          1.9657359780        1.4771814969        2.2643004181
 C          2.8078255317        2.5020695384        2.5833058664
 N          3.7119017693        2.6924173992        1.5841479722
 C          3.4731181081        1.7905517924        0.5971590476
 N          4.1962597846        1.7128325572       -0.5240424344
 C          3.8460478006        0.7781474396       -1.3793533587
 H         -0.3092459306       -3.2318673473       -0.0111430959
 H         -1.4528530035       -2.8329989186        1.2561842520
 H         -1.4267860802       -1.4671783988       -1.4764186429
 H         -2.5095106001       -2.7834498893       -1.0173854047
 H         -2.9230268658        0.5956846623        1.2704567806
 H         -2.5642010290       -0.9643453469        2.0423394499
 H         -0.5728659238        0.5621191872        1.9337250501
 H         -0.7464240928        0.6314535334        0.1830526511
 H          0.7202637343       -2.4156489811       -1.6216035235
 H          1.1676304154        1.1298311364        2.8865409613
 H          2.8206492315        3.1126466971        3.4638624091
 H          4.4229707284        0.7021873396       -2.2886463994
 H          4.4480138963        3.3778120169        1.5632348282
 H         -0.1290642904       -1.7534893747        3.0107889634
 H          1.0589088419       -2.7109885980        2.1180462268
 H          1.4126541166       -1.0378638990        2.5271145300
 H         -5.8388702139        0.7603970863       -1.1333527254
 H         -5.2340615085        0.5534410111        0.5310847876
 H         -5.6679171736       -0.8799850679       -0.4496162322
  42
        -67.90738105
 C          1.0594408935       -2.2775055133       -2.1234875140
 C          0.0138402170       -1.5791462754       -1.2483694509
 C         -0.6943121621       -0.4258079499       -1.9787135613
 C         -1.6213754688        0.3256630896       -1.0144780925
 N         -2.0421970051       -0.5516125763        0.0659903660
 C         -2.3610394511       -1.8952086351       -0.3777063196
 C         -1.0794267811       -2.5939556875       -0.8694697690
 S         -3.0952463204        0.1179619035        1.1601287432
 O         -2.8500453830        1.5442924219        1.1792332854
 O         -4.4655090591       -0.2712429861        0.8601238398
 C         -2.6100148756       -0.5887355500        2.7310174054
 N          0.6821945173       -1.0402400182       -0.0671501651
 C          0.4300994228       -1.3534723016        1.2333967595
 N          1.0710206730       -0.6305227683        2.1003566694
 C          1.8115431818        0.2478293851        1.3482583627
 C          1.5800951683       -0.0004066745       -0.0281237713
 C          2.2832770810        0.7840585913       -0.9547553747
 C          2.4482580597        0.9210763937       -2.3611337906
 C          3.3369398018        1.9362139451       -2.5644930459
 N          3.7440506712        2.4480025670       -1.3706598849
 C          3.1289621080        1.7688489351       -0.3676981198
 N          3.3315622206        2.0179946309        0.9293676711
 C          2.6790125167        1.2548722966        1.7786420880
 H          0.0188979317        0.2811441622       -2.3918823910
 H         -1.2722790489       -0.8511935803       -2.7980135373
 H         -1.1135333162        1.1698145558       -0.5428562119
 H         -2.4938268485        0.7227560011       -1.5507411191
 H         -2.8063837575       -2.4194216079        0.4657384284
 H         -3.1164787520       -1.8541150936       -1.1724637541
 H         -1.3151369287       -3.1678770913       -1.7647062570
 H         -0.7005196671       -3.2941057284       -0.1283141741
 H         -0.2293594377       -2.1408597264        1.5299022177
 H          1.9914842440        0.3465978156       -3.1409541161
 H          3.7094468755        2.3282873301       -3.4896936465
 H          2.8438284932        1.4395668192        2.8294542935
 H          4.3967459366        3.2009186306       -1.2324785827
 H          1.9429825625       -1.6588125469       -2.2383548808
 H          1.3604579617       -3.2132948849       -1.6591793083
 H          0.6480310400       -2.4897058183       -3.1052433680
 H         -2.8728732144       -1.6367249146        2.7384851471
 H         -3.1583932907       -0.0518163475        3.4937212713
 H         -1.5443219379       -0.4329724807        2.8362627912
  42
        -67.90737150
 C          0.1153274701       -0.2132960031       -2.1624938336
 C         -0.0881988977       -0.4648609351       -0.6653788520
 C         -0.7121006622        0.7446679886        0.0689554094
 C         -2.2339069055        0.6842562587        0.1126929680
 N         -2.7106795247       -0.4982659882        0.8319962852
 C         -1.7671501912       -1.6081775216        0.8311673482
 C         -1.0329065686       -1.6693745279       -0.5040975553
 S         -4.2480935512       -0.9304575295        0.3249009498
 O         -4.3586604637       -0.8801396545       -1.1270082015
 O         -4.5699146450       -2.2133045402        0.9134643738
 C         -5.2876301804        0.3337968110        1.0467662686
 N          1.2161967083       -0.7271223733       -0.0555884090
 C          1.6021620719       -1.8349855407        0.6415913923
 N          2.8146474071       -1.7915811746        1.0997774859
 C          3.2995749170       -0.5700917514        0.7031338127
 C          2.2988056757        0.1234393563       -0.0224463314
 C          2.6126162980        1.4094034083       -0.4893996015
 C          2.0195099798        2.4826638551       -1.2097005131
 C          2.9535459968        3.4732608571       -1.2994215117
 N          4.1020693891        3.0901641365       -0.6785783525
 C          3.9332457331        1.8415761859       -0.1718409806
 N          4.8803315957        1.1838524235        0.5033134691
 C          4.5604006259       -0.0142712546        0.9383470018
 H         -0.3344820464        0.7711398483        1.0923271093
 H         -0.4206529575        1.6730748798       -0.4153468351
 H         -2.6133213027        1.5621599275        0.6381699988
 H         -2.6423464676        0.6764048688       -0.9046937465
 H         -1.0742928953       -1.4738777058        1.6660483952
 H         -2.3516952659       -2.5119897161        1.0053403903
 H         -1.7892418026       -1.6258491897       -1.2914326091
 H         -0.4989724695       -2.6091276244       -0.6273848559
 H          0.9638115099       -2.6766572888        0.8125227173
 H          1.0332021122        2.5393987656       -1.6217072116
 H          2.8727338368        4.4328117678       -1.7697019546
 H          5.3143094761       -0.5554171081        1.4896020101
 H          4.9479189523        3.6283554392       -0.5956810168
 H          0.9204491427        0.4910133758       -2.3394956553
 H          0.3673411740       -1.1476455019       -2.6594767807
 H         -0.8008715759        0.1741933134       -2.5989554034
 H         -5.1506899809        1.2483848523        0.4875976658
 H         -4.9841580270        0.4333546558        2.0792142119
 H         -6.3095632565       -0.0151805566        0.9727573266
  42
        -67.90712549
 C          0.1798253328       -1.0400254624        2.0487891903
 C         -0.0017824113       -0.9628115469        0.5276267799
 C         -0.8304992324       -2.1696796406        0.0449204635
 C         -2.3221650664       -1.8889119840        0.1827589618
 N         -2.7001045333       -0.8542257920       -0.7674404778
 C         -1.6591702861        0.1108115536       -1.0763613949
 C         -0.7291621142        0.3382494701        0.1119230703
 S         -4.2329774089       -0.2791806970       -0.6309273064
 O         -4.4782084087        0.5793990891       -1.7717288254
 O         -5.1057175504       -1.4266865791       -0.4945572328
 C         -4.3680346164        0.7226786824        0.8624396410
 N          1.3323653883       -0.9891985876       -0.0708583292
 C          1.9003156366       -1.9982332381       -0.7931291140
 N          3.1211491976       -1.7736084019       -1.1700562443
 C          3.4264542099       -0.5345311989       -0.6631761354
 C          2.3104741330       -0.0290712141        0.0484579398
 C          2.4502386063        1.2181023575        0.6750324265
 C          1.7039929438        2.1125107648        1.4907292215
 C          2.5100477622        3.1819107172        1.7527894513
 N          3.7195689752        3.0155025812        1.1506262769
 C          3.7228447299        1.8298337501        0.4878967290
 N          4.7706307416        1.3629737958       -0.1980911702
 C          4.6194988198        0.1870466870       -0.7663327090
 H         -0.6389859733       -2.3709159810       -1.0074974786
 H         -0.5740032182       -3.0564567662        0.6230351805
 H         -2.9125929914       -2.7748744028       -0.0559982761
 H         -2.5631107219       -1.5899828226        1.2085256847
 H         -1.0896611147       -0.2509760320       -1.9384559950
 H         -2.1595119377        1.0311533128       -1.3776257887
 H         -1.3073425554        0.7082194929        0.9575589185
 H         -0.0028753052        1.0990527456       -0.1657461841
 H          1.3959545399       -2.9126243245       -1.0262405751
 H          0.7025768428        1.9955386661        1.8490912780
 H          2.2990073350        4.0571425843        2.3339908504
 H          5.4620722054       -0.2038870071       -1.3162750320
 H          4.4976660281        3.6522321912        1.1834532399
 H          0.7401108027       -0.1850969438        2.4138934977
 H         -0.7842661373       -1.0709592580        2.5461333972
 H          0.7315723063       -1.9414041196        2.3069729425
 H         -3.6884693756        1.5579298369        0.7693107665
 H         -4.1460601205        0.0961531079        1.7143544224
 H         -5.3929342647        1.0649716275        0.8998643158
  42
        -67.90702126
 C          0.6100504276       -3.1259741204        1.5332450387
 C         -0.2753727342       -2.0390823369        0.9056478724
 C         -1.4498721269       -2.6884951050        0.1312500113
 C         -2.7132401187       -1.8115210186        0.1400639322
 N         -2.3982284595       -0.4011940671        0.2140361131
 C         -1.7185085256       -0.0248500430        1.4410173853
 C         -0.8979901126       -1.1868150329        2.0102579108
 S         -1.9434232940        0.3087249229       -1.2174064657
 O         -0.9836267839        1.3627328229       -0.9613957189
 O         -1.5578358600       -0.6905422140       -2.1963775951
 C         -3.4800502032        1.0603647576       -1.7554135026
 N          0.5876576937       -1.2618723746        0.0012713618
 C          0.9743300937       -1.7934889036       -1.1979528323
 N          1.7810507700       -1.0612205213       -1.8934785970
 C          1.9815803031        0.0537586314       -1.1214318588
 C          1.2673104300       -0.0610794535        0.1029840860
 C          1.4630842673        0.9825161007        1.0317163268
 C          1.1050429348        1.3622453204        2.3587637674
 C          1.6896730276        2.5659176929        2.6195434529
 N          2.4024322309        2.9782808022        1.5389636424
 C          2.2958562622        2.0425080675        0.5607976787
 N          2.9200652970        2.1650847704       -0.6132472842
 C          2.7653284746        1.1606291067       -1.4447575926
 H         -1.1758931114       -2.8673998294       -0.9043919089
 H         -1.6783714947       -3.6485671421        0.5928633495
 H         -3.2772652774       -1.9721111028       -0.7772144675
 H         -3.3517709072       -2.0399364948        0.9953368324
 H         -1.0925519417        0.8325533471        1.1958453954
 H         -2.4740547761        0.2908970736        2.1672696551
 H         -1.5503552400       -1.8447490010        2.5852396718
 H         -0.1240562252       -0.8273841716        2.6789415070
 H          0.6622683702       -2.7597970477       -1.5379186611
 H          0.5011006920        0.8418257940        3.0700387107
 H          1.6444335010        3.1547208061        3.5135235067
 H          3.2695469244        1.2202361066       -2.3976153073
 H          2.9352552227        3.8271047494        1.4525107646
 H          1.4666809404       -2.6683586302        2.0237117596
 H          0.0484691841       -3.6928300979        2.2693628847
 H          0.9767139872       -3.8056470200        0.7682969416
 H         -3.7488203091        1.7962526858       -1.0112801910
 H         -4.2228718512        0.2793859804       -1.8340506002
 H         -3.2987177814        1.5228025620       -2.7163608783
  42
        -67.90697516
 C          0.4676600913       -1.0817567301       -2.2646093711
 C         -0.0168276669       -0.7929106409       -0.8389010981
 C         -0.6931784157        0.5951812060       -0.7443546746
 C         -1.8571820800        0.6030321677        0.2386903978
 N         -2.9046136735       -0.2852809614       -0.2375780933
 C         -2.4309081775       -1.4889615563       -0.9032071911
 C         -1.0363859999       -1.8681278161       -0.4128260594
 S         -4.1982669522       -0.4546751454        0.7632958055
 O         -4.6001116299        0.8755288995        1.1695493425
 O         -5.1930584548       -1.2329756617        0.0539612802
 C         -3.7073358459       -1.3789231007        2.2321506395
 N          1.1563362831       -0.8251378012        0.0346535634
 C          1.4681938362       -1.7642850246        0.9746285099
 N          2.6010116842       -1.5729117647        1.5769634644
 C          3.1181613659       -0.4363399953        1.0062909593
 C          2.2237326774        0.0428784287        0.0172651966
 C          2.6041904113        1.1838058905       -0.7044325824
 C          2.1261518146        2.0103157838       -1.7582319050
 C          3.0644145276        2.9797131317       -1.9625051543
 N          4.1053950523        2.8137001038       -1.1007612121
 C          3.8632061304        1.7284198237       -0.3208909874
 N          4.7008792187        1.2871861984        0.6223495742
 C          4.3276686374        0.2103396474        1.2776457973
 H          0.0287805049        1.3411271903       -0.4193807908
 H         -1.0691409449        0.8827585749       -1.7247288044
 H         -1.5043248593        0.3105494786        1.2355874233
 H         -2.2980241224        1.5977106063        0.3175923167
 H         -3.1576096947       -2.2764874113       -0.7041201516
 H         -2.4267418244       -1.3081006511       -1.9815670585
 H         -0.7544206046       -2.8367786437       -0.8232884617
 H         -1.0725870969       -1.9456024143        0.6727967575
 H          0.8468083383       -2.6064455621        1.1969855014
 H          1.2113627035        1.9143944820       -2.3053063171
 H          3.0580703346        3.7828449057       -2.6720165418
 H          5.0006035235       -0.1596961426        2.0362865605
 H          4.9291739423        3.3877163213       -1.0391718665
 H          0.9680661170       -2.0473658491       -2.2952717379
 H         -0.3714330563       -1.1026785416       -2.9525397558
 H          1.1730398740       -0.3246934790       -2.5921295076
 H         -2.9513564664       -0.8101626823        2.7546079887
 H         -3.3545836920       -2.3516500032        1.9194836513
 H         -4.5986521700       -1.4712894951        2.8371075167
  42
        -67.90699653
 C          0.6199916033       -3.1118835366        1.5357700795
 C         -0.2747507936       -2.0323202205        0.9087971373
 C         -1.4507391808       -2.6910052389        0.1451445347
 C         -2.7142210242       -1.8138614887        0.1484890961
 N         -2.3989744563       -0.4032138354        0.2140780002
 C         -1.7179070402       -0.0192344754        1.4380882654
 C         -0.8966137630       -1.1780690244        2.0122962590
 S         -1.9496156677        0.2998931897       -1.2221364067
 O         -0.9842863150        1.3513066957       -0.9761256872
 O         -1.5745531165       -0.7050061503       -2.1992644619
 C         -3.4868314068        1.0548188497       -1.7540597965
 N          0.5794233320       -1.2532144433       -0.0025205753
 C          0.9582340174       -1.7812590780       -1.2056788845
 N          1.7670095805       -1.0507396407       -1.9006828656
 C          1.9776371952        0.0592476623       -1.1239708475
 C          1.2659373891       -0.0562753276        0.1018560101
 C          1.4677944825        0.9840977458        1.0330976892
 C          1.1111363725        1.3642663688        2.3604683791
 C          1.7046233977        2.5629463194        2.6243177070
 N          2.4220897072        2.9715729041        1.5456077585
 C          2.3084524619        2.0391849234        0.5650911743
 N          2.9329229067        2.1612628384       -0.6088016654
 C          2.7693774217        1.1614753671       -1.4440967588
 H         -1.1802018473       -2.8836472104       -0.8888465876
 H         -1.6771463340       -3.6451846892        0.6198476777
 H         -3.2785905263       -1.9795504547       -0.7676619185
 H         -3.3527165661       -2.0369755722        1.0051922333
 H         -1.0919325113        0.8364695884        1.1869870012
 H         -2.4724495380        0.3008620220        2.1633524495
 H         -1.5480235703       -1.8344769274        2.5900360329
 H         -0.1223727820       -0.8158948095        2.6789253020
 H          0.6395753448       -2.7439526482       -1.5495589344
 H          0.5010030252        0.8487615420        3.0699748091
 H          1.6625538782        3.1506079737        3.5192234874
 H          3.2736998159        1.2209364898       -2.3968627349
 H          2.9637460322        3.8150196240        1.4618570123
 H          0.0669357711       -3.6766112862        2.2799423831
 H          0.9832132105       -3.7943767820        0.7716477058
 H          1.4786121995       -2.6475995874        2.0163436241
 H         -3.3097140187        1.5149894059       -2.7169593677
 H         -3.7504741363        1.7925577844       -1.0098282656
 H         -4.2317783788        0.2752912066       -1.8273107020
  42
        -67.90677177
 C          0.1448016686       -0.7108472410       -2.0631628862
 C         -0.0069265722       -0.9145383224       -0.5507143627
 C         -0.7343411333        0.2784729083        0.1108045857
 C         -1.7455432479       -0.1705036595        1.1615601485
 N         -2.7814268113       -1.0081949569        0.5797476881
 C         -2.3079792907       -1.9538046264       -0.4279076084
 C         -0.8116524493       -2.1975199172       -0.2764949416
 S         -4.1721446092       -0.1817026243        0.1743135559
 O         -3.8909630371        1.2068574695       -0.1562556382
 O         -4.8554454259       -0.9312984650       -0.8597952214
 C         -5.1220121750       -0.2507087896        1.6888887401
 N          1.3391731533       -1.0373694753        0.0087940585
 C          1.9268412856       -2.1582780477        0.5202464297
 N          3.1562846028       -1.9985550356        0.9015642292
 C          3.4466600223       -0.6858885863        0.6227746792
 C          2.3113272792       -0.0652737105        0.0451931305
 C          2.4292767907        1.2784615912       -0.3378066580
 C          1.6546551231        2.3039101041       -0.9458781422
 C          2.4492210762        3.4105460054       -1.0245454801
 N          3.6781801470        3.1436445874       -0.5021372149
 C          3.7052039660        1.8543380572       -0.0755864207
 N          4.7731408757        1.2749194773        0.4808259046
 C          4.6403772081        0.0129949477        0.8254393980
 H         -0.0142486433        0.9469200604        0.5792533536
 H         -1.2833785715        0.8420020644       -0.6458640827
 H         -1.2599788893       -0.7211093418        1.9704876463
 H         -2.2406651336        0.7062750023        1.5773246564
 H         -2.8586058284       -2.8864587756       -0.2850264541
 H         -2.5487299611       -1.5819966291       -1.4289770203
 H         -0.5132895549       -2.9818590657       -0.9713649855
 H         -0.6358502242       -2.5446542341        0.7405176669
 H          1.4278500781       -3.1015554026        0.5960380217
 H          0.6405262620        2.2463659024       -1.2841356430
 H          2.2163961736        4.3781390207       -1.4222036348
 H          5.4989245181       -0.4658894456        1.2710922957
 H          4.4526028323        3.7825260435       -0.4379212029
 H          0.7225709051        0.1842571029       -2.2731011171
 H          0.6617995570       -1.5617315543       -2.5022472899
 H         -0.8303073808       -0.6146206287       -2.5318231902
 H         -6.0387424570        0.3006411467        1.5276890702
 H         -4.5320837987        0.1969855412        2.4758332464
 H         -5.3202216443       -1.2950411477        1.8816527226
  42
        -67.90672026
 C          0.1116833307       -2.5832745241        1.5369607894
 C         -0.0359582064       -1.4808306248        0.4838516689
 C         -0.8976141609       -1.9302611077       -0.7146346763
 C         -2.3711776951       -2.1006200085       -0.3350874525
 N         -2.9256023324       -0.9378603098        0.3163385081
 C         -2.1571092554       -0.4427241026        1.4335626446
 C         -0.6792872826       -0.2350189437        1.0913435508
 S         -3.7915821950        0.1325686989       -0.5774549033
 O         -4.6516868466       -0.6435472116       -1.4476548526
 O         -4.4581831807        1.0176435289        0.3562916379
 C         -2.7181709395        1.1399116382       -1.6176128199
 N          1.3095965878       -1.1724590142       -0.0260547698
 C          2.0042838615       -2.1356728577       -0.7048848968
 N          3.1793997856       -1.7806667359       -1.1108877891
 C          3.3158464108       -0.4862042629       -0.6817790976
 C          2.1455067673       -0.0725932963        0.0158339532
 C          2.1564234196        1.2420987201        0.5281191726
 C          1.3411129746        2.1449478870        1.2711418254
 C          2.0342849428        3.3116722762        1.4067545226
 N          3.2425540002        3.2090751604        0.7941976792
 C          3.3558495148        1.9695489170        0.2531311736
 N          4.4456626732        1.5741489161       -0.4093293633
 C          4.4202143808        0.3462046690       -0.8722902121
 H         -0.7991798243       -1.1837687309       -1.5046015312
 H         -0.5451506629       -2.8821826921       -1.1082240682
 H         -2.9809357089       -2.2811584062       -1.2203546200
 H         -2.4876174354       -2.9519589048        0.3409424756
 H         -2.6194275718        0.4973040690        1.7351764101
 H         -2.2628856746       -1.1534733470        2.2572819566
 H         -0.1517972626        0.0258295293        2.0071599330
 H         -0.5878959389        0.5774732911        0.3721320349
 H          1.6074492017       -3.1131385437       -0.8875307296
 H          0.3661930868        1.9929294098        1.6793096174
 H          1.7378885121        4.2130099806        1.9049392071
 H          5.2899393589       -0.0019792416       -1.4081615836
 H          3.9558959605        3.9164833192        0.7429767255
 H          0.5253746196       -3.4878788073        1.1010147517
 H          0.7795093689       -2.2485411782        2.3275115058
 H         -0.8502694330       -2.8234283686        1.9756086409
 H         -3.3772220534        1.7960354644       -2.1699741560
 H         -2.1825688736        0.4858243900       -2.2903229998
 H         -2.0601054197        1.7119576072       -0.9793898595
  42
        -67.90663310
 C          0.6299544138       -3.1076622429       -1.7621433502
 C          0.0050108849       -2.0382557615       -0.8587239153
 C         -0.7842303041       -1.0409736528       -1.7031501237
 C         -1.4696620096        0.0160572213       -0.8421349757
 N         -2.3686024045       -0.6255895884        0.1079649045
 C         -1.6766440773       -1.5827172291        0.9581081674
 C         -1.0244546746       -2.6623882908        0.1034184995
 S         -3.1810814962        0.5147232331        1.0318292657
 O         -3.9210186302       -0.2005709318        2.0497221969
 O         -2.2502187931        1.5118894629        1.5386149924
 C         -4.3340307719        1.2715017368       -0.1120089401
 N          1.0904640226       -1.4124888870       -0.0927953248
 C          1.6815808945       -2.1126350717        0.9220583413
 N          2.6448154922       -1.4979316370        1.5280235473
 C          2.7406408987       -0.2918150147        0.8844191135
 C          1.7764840398       -0.2136623281       -0.1601217773
 C          1.7944919871        0.9668435454       -0.9332977055
 C          1.1411709117        1.5646187282       -2.0496981728
 C          1.7120666050        2.7848552084       -2.2600807846
 N          2.6927460975        3.0023153837       -1.3455298768
 C          2.7742967745        1.9239084004       -0.5256112181
 N          3.6607457796        1.8480565068        0.4702188055
 C          3.6407574056        0.7366066289        1.1681704056
 H         -0.1305908425       -0.5818649988       -2.4364642019
 H         -1.5531096959       -1.5982989846       -2.2372753422
 H         -0.7401603398        0.6319981708       -0.3009723325
 H         -2.0731430225        0.6714249762       -1.4681411981
 H         -0.9241392771       -1.0675120751        1.5765259088
 H         -2.4276274651       -2.0051269008        1.6266269615
 H         -1.7947135430       -3.1457755233       -0.4958670588
 H         -0.5846344197       -3.4134964684        0.7547627125
 H          1.3834001441       -3.1040180761        1.1940302295
 H          0.3422226971        1.1824755470       -2.6461994516
 H          1.4801259219        3.5141349379       -3.0100340835
 H          4.3511389790        0.6426875087        1.9753536858
 H          3.2780973635        3.8166189687       -1.2675361511
 H          1.1548358091       -3.8516011200       -1.1690108723
 H         -0.1404035532       -3.6051021824       -2.3423852016
 H          1.3413845216       -2.6481536370       -2.4442152523
 H         -5.1548748111        1.6485819583        0.4843443011
 H         -4.6703096946        0.4925642188       -0.7819167378
 H         -3.8314723111        2.0771751656       -0.6284275739
  42
        -67.90663198
 C          0.6215924252       -3.0985474152       -1.7534009964
 C          0.0070662662       -2.0263335657       -0.8459313265
 C         -0.7791814757       -1.0246359469       -1.6881309447
 C         -1.4654286027        0.0304228896       -0.8250613573
 N         -2.3656082122       -0.6167104502        0.1188664902
 C         -1.6699918621       -1.5645412884        0.9748019606
 C         -1.0197203758       -2.6468093236        0.1214881208
 S         -3.2223886469        0.5110050771        1.0156147107
 O         -3.9365911461       -0.2091242451        2.0485427266
 O         -2.3354798751        1.5579741099        1.4998840056
 C         -4.4007962111        1.1898981234       -0.1510306153
 N          1.1004366762       -1.4077814024       -0.0855021873
 C          1.6996220716       -2.1176712049        0.9178907041
 N          2.6756696444       -1.5135893126        1.5137831449
 C          2.7728098979       -0.3053133307        0.8744937637
 C          1.7945872893       -0.2137987481       -0.1559315409
 C          1.8099518538        0.9717575499       -0.9216434361
 C          1.1426855176        1.5836430169       -2.0220613987
 C          1.7206847007        2.8003281177       -2.2336682279
 N          2.7190589024        3.0024575838       -1.3348390414
 C          2.8046194291        1.9176415810       -0.5239226029
 N          3.7064959523        1.8279203748        0.4566594733
 C          3.6868980650        0.7131829436        1.1495002856
 H         -0.1228805712       -0.5646471193       -2.4186888637
 H         -1.5480795917       -1.5791451860       -2.2251629011
 H         -0.7369901760        0.6441061133       -0.2798616324
 H         -2.0671083041        0.6895676379       -1.4487341417
 H         -0.9157440824       -1.0447438610        1.5871283075
 H         -2.4176433422       -1.9846883709        1.6482470512
 H         -1.7918939241       -3.1315584374       -0.4741490187
 H         -0.5777298858       -3.3961518865        0.7732472597
 H          1.3970826031       -3.1079034447        1.1891192836
 H          0.3292997656        1.2135534203       -2.6064120456
 H          1.4823425411        3.5370757743       -2.9742722897
 H          4.4091964252        0.6084280700        1.9445764059
 H          3.3121413124        3.8114691229       -1.2593907289
 H          1.3336319233       -2.6426140214       -2.4373388224
 H          1.1432959714       -3.8473292692       -1.1635175960
 H         -0.1541964162       -3.5895413428       -2.3318068235
 H         -5.2371777275        1.5526692329        0.4322606693
 H         -4.7043718723        0.3789333941       -0.7980072144
 H         -3.9285713034        1.9986662595       -0.6906622960
  42
        -67.90663163
 C          0.1103357991       -0.6882356810       -2.0327113944
 C         -0.0177561155       -0.9226183937       -0.5223711203
 C         -0.7488338040        0.2506558895        0.1698007526
 C         -1.7561317497       -0.2267683917        1.2121231027
 N         -2.7902211569       -1.0634536953        0.6217299458
 C         -2.3039735367       -1.9905175320       -0.3998810249
 C         -0.8043903086       -2.2192407018       -0.2606173939
 S         -4.1327662078       -0.2009336209        0.1258062586
 O         -3.7605868709        1.0353188314       -0.5468061747
 O         -4.9457817701       -1.0979514456       -0.6677252082
 C         -4.9823266890        0.1727374031        1.6586786918
 N          1.3377280926       -1.0418390442        0.0147129052
 C          1.9469979133       -2.1668365720        0.4908288905
 N          3.1816499495       -2.0014891153        0.8525623648
 C          3.4524699298       -0.6798083417        0.5967288685
 C          2.3000381353       -0.0602081612        0.0533213314
 C          2.3960476506        1.2923018581       -0.3034322934
 C          1.5983450935        2.3204089703       -0.8760348155
 C          2.3784911267        3.4377300410       -0.9459775382
 N          3.6197913794        3.1752183671       -0.4510117647
 C          3.6699613790        1.8776263890       -0.0523278781
 N          4.7546300256        1.2989418135        0.4720361964
 C          4.6420161833        0.0284084460        0.7918774666
 H         -0.0298462753        0.9099914947        0.6527923457
 H         -1.3020122474        0.8280615636       -0.5730720141
 H         -1.2658407267       -0.7913347287        2.0082653040
 H         -2.2531282035        0.6365131615        1.6510360933
 H         -2.8469827129       -2.9294987587       -0.2709895353
 H         -2.5508446799       -1.6028889396       -1.3940665005
 H         -0.5023097648       -2.9902183774       -0.9688335171
 H         -0.6169960025       -2.5791997278        0.7499446427
 H          1.4587461926       -3.1165287977        0.5562731929
 H          0.5793469795        2.2567426940       -1.1982388344
 H          2.1273330939        4.4101504823       -1.3199063362
 H          5.5136688585       -0.4507906612        1.2109925001
 H          4.3878474283        3.8219723964       -0.3885463333
 H         -0.8719306339       -0.5783032511       -2.4832905665
 H          0.6867973219        0.2100706126       -2.2324902543
 H          0.6177566497       -1.5306424373       -2.4984099465
 H         -6.0181127795        0.3525408490        1.4022628932
 H         -4.5393262891        1.0517454581        2.1044736176
 H         -4.8842982984       -0.6991949121        2.2891157232
  42
        -67.90657761
 C          0.6872173206       -3.3155800358       -1.6875120988
 C         -0.1901643547       -2.2709944418       -0.9883452307
 C         -0.9048537847       -1.4162337994       -2.0323948145
 C         -1.9710057118       -0.5006490532       -1.3951526898
 N         -1.9789055459       -0.5897239807        0.0455785171
 C         -2.0594665487       -1.8967597613        0.6608695769
 C         -1.3089706613       -2.9446946997       -0.1714078633
 S         -1.7399678385        0.7114681635        1.0046747389
 O         -0.8979424557        0.3491492627        2.1278129854
 O         -1.2975602187        1.8230204881        0.1921278592
 C         -3.3760903012        1.0953890893        1.6413383795
 N          0.6710259214       -1.4871683979       -0.0948033217
 C          1.1164063190       -2.0571954151        1.0641577598
 N          1.8612097338       -1.2993740594        1.8016485974
 C          1.9306614865       -0.1170517020        1.1127723730
 C          1.2028071953       -0.2126032836       -0.1074659601
 C          1.2417913503        0.9196672448       -0.9460571625
 C          0.7994392615        1.3662285524       -2.2248061879
 C          1.2144421650        2.6545989941       -2.3830730481
 N          1.9067666770        3.0562816175       -1.2858712768
 C          1.9463142422        2.0327160022       -0.3950561370
 N          2.5859928369        2.1304147072        0.7730030596
 C          2.5836533980        1.0464982978        1.5152537081
 H         -0.1660909569       -0.8530271078       -2.5882182121
 H         -1.3887888348       -2.0973134293       -2.7318551643
 H         -1.7756392944        0.5480009962       -1.6189837615
 H         -2.9663391449       -0.7647918185       -1.7675000337
 H         -1.6101006917       -1.7876135765        1.6506494161
 H         -3.1087133756       -2.1914729745        0.7783934626
 H         -1.9915888091       -3.4068412404       -0.8838142520
 H         -0.9293918184       -3.7290973419        0.4792922159
 H          0.8814725556       -3.0650724747        1.3396544080
 H          0.2476423155        0.8421777486       -2.9756209759
 H          1.0641762240        3.3114399822       -3.2163166928
 H          3.1034720893        1.0906321743        2.4605738709
 H          2.3135217084        3.9618103143       -1.1246342111
 H          1.4232247743       -2.8217350902       -2.3174743432
 H          1.2150431361       -3.9222615556       -0.9566370996
 H          0.0763065871       -3.9663199633       -2.3051980246
 H         -4.0106250362        1.3107410928        0.7934356100
 H         -3.2768680141        1.9601076313        2.2830689761
 H         -3.7226899436        0.2380831799        2.2007093670
  42
        -67.90650651
 C          1.0537431712       -2.1181062301        2.2014122572
 C          0.0143796792       -1.4847104752        1.2704367018
 C         -1.0369644136       -2.5510505718        0.9131694650
 C         -2.3697277559       -1.9238267848        0.4709397279
 N         -2.1378095210       -0.6018589713       -0.0760138784
 C         -1.6464659045        0.3675180368        0.8901553045
 C         -0.7392010593       -0.3128616248        1.9212071533
 S         -3.2138983170       -0.0202469219       -1.1969002624
 O         -4.2922998910       -0.9768196688       -1.3677401377
 O         -3.6194317932        1.3203392036       -0.8177195944
 C         -2.2768631556        0.0583400495       -2.7205551217
 N          0.7019169516       -0.9785598256        0.0858992122
 C          0.4709060668       -1.3141927994       -1.2131942144
 N          1.1636102558       -0.6379496156       -2.0781508340
 C          1.9167643286        0.2306777075       -1.3278246487
 C          1.6341070107        0.0319329640        0.0469668146
 C          2.3182722739        0.8363779359        0.9714471632
 C          2.4176994087        1.0370094056        2.3764080804
 C          3.3247861757        2.0365269114        2.5764639425
 N          3.8046783861        2.4790771990        1.3822692259
 C          3.2174096967        1.7718380978        0.3823359128
 N          3.4806345699        1.9628487294       -0.9135681411
 C          2.8337356895        1.1926148145       -1.7602515231
 H         -0.6447594937       -3.2251069199        0.1548718768
 H         -1.2202585059       -3.1448834473        1.8078096834
 H         -2.8543781306       -2.5084810839       -0.3093842369
 H         -3.0664366733       -1.8627848035        1.3165500979
 H         -1.0986669990        1.1263559444        0.3254314600
 H         -2.4841789526        0.8727584394        1.3863959485
 H         -1.3333581327       -0.7049763846        2.7452326720
 H         -0.0520004656        0.4309286045        2.3148080724
 H         -0.2254878943       -2.0693479374       -1.5097326450
 H          1.9019104268        0.5180853246        3.1582412035
 H          3.6621037841        2.4626881002        3.5000819678
 H          3.0415708719        1.3348830832       -2.8099009786
 H          4.4829124352        3.2086249132        1.2415512271
 H          0.6255883835       -2.2819350657        3.1853536003
 H          1.3733350951       -3.0743741901        1.7943770206
 H          1.9288032754       -1.4853900400        2.2991217613
 H         -2.8309777286        0.6841012785       -3.4070175242
 H         -2.1843389484       -0.9489852398       -3.1001553644
 H         -1.3071977682        0.4830552806       -2.5012027687
  42
        -67.90648512
 C          0.6442477412       -1.4397267088       -2.3795801225
 C          0.0078995652       -1.1388716517       -1.0185450763
 C         -0.8420069377        0.1568573747       -1.0356399800
 C         -2.3288187882       -0.1427512141       -1.2043870688
 N         -2.8489933944       -0.9647384397       -0.1255979321
 C         -1.9203105930       -1.9416684115        0.4242150041
 C         -0.9000964725       -2.3224324085       -0.6413006202
 S         -3.8154661724       -0.2171223077        0.9735656583
 O         -4.8139961150        0.5291510871        0.2356046247
 O         -4.3153119728       -1.2440041110        1.8632116875
 C         -2.8473994758        0.9585651814        1.9403231791
 N          1.0799513094       -0.9618387792       -0.0375465391
 C          1.3109724598       -1.6961117294        1.0897489806
 N          2.3124483440       -1.2883999508        1.8061327535
 C          2.8097697016       -0.1999742259        1.1334487579
 C          2.0418897401        0.0236479877       -0.0365960937
 C          2.4090554077        1.1024715428       -0.8554898854
 C          2.0180656714        1.7309815439       -2.0692596782
 C          2.8710718656        2.7757502263       -2.2751063462
 N          3.7777561067        2.8454891426       -1.2627195677
 C          3.5306569159        1.8429897143       -0.3806638477
 N          4.2527459692        1.6348017887        0.7242054751
 C          3.8917931047        0.6172014765        1.4735447129
 H         -0.6846038209        0.6956961481       -0.0999830529
 H         -0.5285136613        0.8069333494       -1.8479671934
 H         -2.9215277476        0.7717977992       -1.2119509713
 H         -2.5063499878       -0.6613897182       -2.1505731948
 H         -1.4176297407       -1.5389854973        1.3116888625
 H         -2.5090046857       -2.8055112804        0.7392568258
 H         -1.4401095317       -2.6367731312       -1.5330393439
 H         -0.3064580136       -3.1719324818       -0.3100727971
 H          0.7230624190       -2.5429124209        1.3763045943
 H          1.2187727991        1.4609439012       -2.7273158186
 H          2.8905064309        3.4782617413       -3.0841675902
 H          4.4679306550        0.4362652211        2.3682612150
 H          4.5201286789        3.5177805639       -1.1677304996
 H          1.4407974411       -0.7377027743       -2.6016271768
 H          1.0680456917       -2.4411944966       -2.3752136240
 H         -0.1069491869       -1.3816487097       -3.1611778057
 H         -2.0210917702        0.4335284231        2.3986564999
 H         -3.5174038535        1.3432232700        2.6967317352
 H         -2.5210081533        1.7489018296        1.2792006240
  42
        -67.90646710
 C          0.6323758758       -1.3851844032       -2.3803948564
 C          0.0098518061       -1.1076203015       -1.0081132104
 C         -0.8394622779        0.1883121272       -0.9926238632
 C         -2.3236248104       -0.1077450186       -1.1866281017
 N         -2.8542704596       -0.9567236792       -0.1336708053
 C         -1.9224122421       -1.9289003667        0.4185089116
 C         -0.8958588951       -2.2978636890       -0.6449988827
 S         -3.8583823375       -0.2455962051        0.9562232691
 O         -4.8445641413        0.5079218480        0.2091036479
 O         -4.3710731856       -1.2984016875        1.8075281468
 C         -2.9275840381        0.9153132946        1.9759366282
 N          1.0912388240       -0.9479062597       -0.0344804177
 C          1.3236856723       -1.6922538196        1.0858549695
 N          2.3362870262       -1.3009568896        1.7958763450
 C          2.8388075442       -0.2124880371        1.1271436105
 C          2.0624898137        0.0284799413       -0.0339399758
 C          2.4306921054        1.1128794926       -0.8451959115
 C          2.0304608532        1.7601312310       -2.0462295676
 C          2.8925342192        2.7975499789       -2.2514356379
 N          3.8127929403        2.8458803707       -1.2500681611
 C          3.5658135734        1.8362783221       -0.3760755095
 N          4.2981168840        1.6093971830        0.7183280703
 C          3.9334408047        0.5895731220        1.4627880420
 H         -0.6936282280        0.6951575369       -0.0371526100
 H         -0.5159827272        0.8654952388       -1.7786707593
 H         -2.9173301502        0.8062175306       -1.1805366148
 H         -2.4885675798       -0.6040682690       -2.1470953222
 H         -1.4244957030       -1.5266644641        1.3089805726
 H         -2.5079197427       -2.7969975151        0.7272114593
 H         -1.4319135138       -2.6054967323       -1.5414899422
 H         -0.3010166287       -3.1487196406       -0.3193957778
 H          0.7278524129       -2.5336065364        1.3723184368
 H          1.2185374584        1.5077425517       -2.6963285959
 H          2.9091465184        3.5091190290       -3.0526664673
 H          4.5172846697        0.3940300336        2.3493621451
 H          4.5625821513        3.5101125129       -1.1561122617
 H         -0.1250297123       -1.3045731614       -3.1540220122
 H          1.4330178006       -0.6857521320       -2.5951213126
 H          1.0476030978       -2.3901196137       -2.4005248697
 H         -2.1255912055        0.3797705337        2.4651028824
 H         -3.6285744818        1.2970673823        2.7052917807
 H         -2.5674006067        1.7097623909        1.3374601071
  42
        -67.90646481
 C          0.6557141954       -1.4909534334       -2.3777966342
 C          0.0056437283       -1.1684098532       -1.0281731730
 C         -0.8445460553        0.1265945272       -1.0772386691
 C         -2.3338830591       -0.1744230991       -1.2209757061
 N         -2.8438449851       -0.9708856708       -0.1190285301
 C         -1.9204231030       -1.9550867530        0.4272084969
 C         -0.9048811771       -2.3458758276       -0.6393247153
 S         -3.7729540883       -0.1894015291        0.9888954205
 O         -4.7774516181        0.5588413536        0.2610860900
 O         -4.2667282953       -1.1930373787        1.9079399507
 C         -2.7665492497        0.9886615467        1.9131429509
 N          1.0683677357       -0.9750328544       -0.0399195608
 C          1.2979428873       -1.6999536586        1.0937646815
 N          2.2891169233       -1.2772241796        1.8157705799
 C          2.7809767694       -0.1881688611        1.1401256251
 C          2.0215972658        0.0188886728       -0.0384928495
 C          2.3872777793        1.0931123034       -0.8640098099
 C          2.0042278738        1.7054383081       -2.0884300674
 C          2.8495160745        2.7562386781       -2.2953418509
 N          3.7440196494        2.8448428227       -1.2736049196
 C          3.4969871837        1.8484563611       -0.3846946161
 N          4.2097626101        1.6570761490        0.7291427145
 C          3.8515309953        0.6425016638        1.4838103959
 H         -0.6761563867        0.6957320113       -0.1618610757
 H         -0.5407307913        0.7493508995       -1.9142945001
 H         -2.9246540749        0.7412037317       -1.2404188800
 H         -2.5243054959       -0.7127789479       -2.1534412685
 H         -1.4140512440       -1.5551582785        1.3136537295
 H         -2.5138152790       -2.8150140081        0.7447112078
 H         -1.4474653581       -2.6659429422       -1.5274320383
 H         -0.3124860352       -3.1942019620       -0.3026300542
 H          0.7176334016       -2.5518866245        1.3804320994
 H          1.2155656792        1.4203405899       -2.7527405638
 H          2.8713157829        3.4509189163       -3.1110613216
 H          4.4205276939        0.4756092548        2.3858143187
 H          4.4804420879        3.5234688713       -1.1776869099
 H          1.4486195193       -0.7866661197       -2.6063570798
 H          1.0871361895       -2.4887955756       -2.3508542711
 H         -0.0891624361       -1.4538037536       -3.1666530467
 H         -3.4081173683        1.3802796817        2.6903440599
 H         -2.4614308625        1.7736333845        1.2357219458
 H         -1.9259786455        0.4644015164        2.3458020901
  42
        -67.90645358
 C          0.6751050781       -2.8819907389        1.9433446279
 C          0.0517282013       -1.8816327476        0.9617680289
 C         -1.0146719767       -2.5708705383        0.0858117689
 C         -1.6946529565       -1.5585351998       -0.8327476169
 N         -2.3233663496       -0.5404725019       -0.0185533902
 C         -1.3865066267        0.1919859306        0.8087934607
 C         -0.6788253675       -0.7887198084        1.7421798838
 S         -3.5172101123        0.3435131446       -0.7265301899
 O         -4.4026220613       -0.5884825349       -1.3932248849
 O         -4.1180755336        1.1578056890        0.3091080244
 C         -2.7848333566        1.4303467006       -1.9602489197
 N          1.1338059961       -1.3607056070        0.1158352623
 C          1.7078349650       -2.1866607166       -0.8122312403
 N          2.7022340690       -1.6768826962       -1.4625477525
 C          2.8444835029       -0.4173700392       -0.9426368094
 C          1.8704126938       -0.1903970694        0.0710569987
 C          1.9209818589        1.0688765843        0.7074421234
 C          1.2608499748        1.8183884916        1.7244385910
 C          1.8847923609        3.0274275340        1.8188765768
 N          2.9024435752        3.0967020198        0.9215406330
 C          2.9568710922        1.9304938508        0.2295620005
 N          3.8606171912        1.7078610819       -0.7275483441
 C          3.7981794978        0.5336812379       -1.3103476838
 H         -0.5991629353       -3.3785621664       -0.5115565443
 H         -1.7656357265       -2.9964567027        0.7501088429
 H         -0.9538544784       -1.1164694007       -1.5151330830
 H         -2.4857642460       -2.0273136236       -1.4177609542
 H         -0.6552485522        0.7221022172        0.1858292693
 H         -1.9720203990        0.9182766726        1.3728618272
 H         -1.4316554627       -1.2723988362        2.3638754162
 H          0.0190955297       -0.2784406462        2.3976969009
 H          1.3696612004       -3.1868939026       -0.9870636679
 H          0.4202459399        1.5459296507        2.3242689584
 H          1.6633393884        3.8458934378        2.4740932994
 H          4.5176145455        0.3241124460       -2.0869474368
 H          3.5309086376        3.8691530963        0.7785479668
 H          1.4201545799       -2.3837214411        2.5593317132
 H         -0.0901879600       -3.2977935153        2.5909344849
 H          1.1588771450       -3.6955219193        1.4097055003
 H         -3.5999023347        1.9828509412       -2.4064261356
 H         -2.2904207104        0.8126011917       -2.6966880456
 H         -2.1000934061        2.0958695548       -1.4536377071
  42
        -67.90646597
 C         -0.5125906019       -0.1181279100       -1.2948485921
 C         -0.1557199848       -0.8151560157        0.0230913647
 C         -0.5227518278        0.0022036796        1.2723890674
 C         -2.0024416540        0.3903452747        1.2598865317
 N         -2.8332927912       -0.6922969482        0.7646060540
 C         -2.2538113396       -2.0097447193        0.8663605803
 C         -0.9063547488       -2.1582029717        0.1294632971
 S         -3.9085709728       -0.4114950204       -0.4584880474
 O         -3.7299335884        0.9343808861       -0.9735486577
 O         -3.8393445813       -1.4770172779       -1.4409026967
 C         -5.4910920825       -0.4977877181        0.3753792036
 N          1.2961262859       -1.0148463661        0.0106375145
 C          1.9746046515       -2.1936859304       -0.0959962371
 N          3.2663302179       -2.0773660989       -0.1025670552
 C          3.5000778726       -0.7276730232       -0.0130375903
 C          2.2638431609       -0.0355119723        0.0368042881
 C          2.3097316198        1.3674633612        0.0738083835
 C          1.4314887814        2.4875670992        0.0728843736
 C          2.2093088735        3.6084225737        0.1099498976
 N          3.5253473844        3.2641941353        0.1360475473
 C          3.6271238365        1.9101530276        0.1039427007
 N          4.7923200067        1.2564669264        0.0884401608
 C          4.7245947038       -0.0543619599        0.0225737799
 H         -0.3088758047       -0.6148521991        2.1470159297
 H          0.0834088220        0.8996840318        1.3483917206
 H         -2.3225142215        0.6466942387        2.2751915178
 H         -2.1805902509        1.2500630559        0.6121276374
 H         -2.1300954400       -2.2259264633        1.9303352349
 H         -2.9755381625       -2.7077315663        0.4458733454
 H         -1.0777617731       -2.5555402984       -0.8711140432
 H         -0.3171465446       -2.8770794601        0.6960691411
 H          1.4925354655       -3.1448424223       -0.1855408309
 H          0.3607847365        2.4932708804        0.0270699138
 H          1.9051213488        4.6359382357        0.1187094438
 H          5.6592241746       -0.5934628764       -0.0042749437
 H          4.3097473781        3.8938589524        0.1568449424
 H         -0.0242141661        0.8482798873       -1.3706920719
 H         -0.1744204624       -0.7338500749       -2.1271347367
 H         -1.5846449332        0.0209818335       -1.3968275434
 H         -6.2634942789       -0.3424364208       -0.3658254318
 H         -5.5007192797        0.2854746650        1.1196913645
 H         -5.5719584415       -1.4782039710        0.8227677475
  42
        -67.90644183
 C          0.7070464666       -1.6609997505       -2.3582465489
 C         -0.0102880734       -1.2663628428       -1.0621964844
 C         -0.8667608503        0.0141962616       -1.2381411246
 C         -2.3637760790       -0.2868985950       -1.2769557385
 N         -2.8256438695       -0.9903700151       -0.0961944228
 C         -1.9361137301       -2.0204061110        0.4228653063
 C         -0.9251185618       -2.4283021634       -0.6422238187
 S         -3.5996273980       -0.0952997744        1.0437718104
 O         -4.6177608098        0.6822106975        0.3674108079
 O         -4.0690568415       -1.0188542075        2.0548691618
 C         -2.4454292028        1.0582928287        1.8148482480
 N          1.0072604923       -1.0069562599       -0.0416598295
 C          1.2317381535       -1.7025325606        1.1115244975
 N          2.1897338392       -1.2334119131        1.8495335688
 C          2.6666085272       -0.1448838878        1.1624231365
 C          1.9344897866        0.0111845164       -0.0407987615
 C          2.2988983237        1.0685183106       -0.8878637448
 C          1.9411840500        1.6285819262       -2.1440594601
 C          2.7673345001        2.6925590969       -2.3603338054
 N          3.6253466912        2.8386748028       -1.3139923357
 C          3.3745388967        1.8663523494       -0.3998632226
 N          4.0573977145        1.7269664715        0.7403089282
 C          3.7040112071        0.7242253104        1.5129433254
 H         -0.6541395466        0.7005060201       -0.4180946861
 H         -0.6070104556        0.5168153382       -2.1663519826
 H         -2.9480334275        0.6315164410       -1.3318592683
 H         -2.6079310484       -0.8910402909       -2.1546027363
 H         -1.4297686715       -1.6555758445        1.3232418625
 H         -2.5547519652       -2.8713685420        0.7186846627
 H         -1.4686550987       -2.7665343965       -1.5229059893
 H         -0.3341453132       -3.2707688439       -0.2878423398
 H          0.6759356304       -2.5702973660        1.3991176030
 H          1.1816010387        1.2993065006       -2.8210822933
 H          2.7996086155        3.3593960504       -3.1986003230
 H          4.2515355157        0.5964776864        2.4344252443
 H          4.3424252125        3.5379041293       -1.2197376514
 H          1.4760645021       -0.9376034039       -2.6097223246
 H          1.1812441012       -2.6323270562       -2.2384556934
 H         -0.0055492364       -1.7187515971       -3.1750843750
 H         -1.5640333754        0.5167739085        2.1294170522
 H         -2.9630189713        1.4670116432        2.6717832369
 H         -2.2201409074        1.8338779754        1.0965337771
  42
        -67.90643156
 C          0.6249198231       -1.3409012260       -2.3827564822
 C          0.0113778670       -1.0821434544       -1.0027876325
 C         -0.8369421579        0.2135749035       -0.9620323856
 C         -2.3199648963       -0.0775428357       -1.1713266661
 N         -2.8571980927       -0.9486298239       -0.1394073963
 C         -1.9226544212       -1.9180536193        0.4121590002
 C         -0.8931521319       -2.2770543528       -0.6518694374
 S         -3.8902385035       -0.2688618465        0.9430893801
 O         -4.8614328832        0.4981709613        0.1901139200
 O         -4.4179421476       -1.3437001124        1.7569673412
 C         -2.9893828876        0.8690720373        2.0135779915
 N          1.0982378561       -0.9358552918       -0.0332386051
 C          1.3289203134       -1.6871730426        1.0826701224
 N          2.3476424688       -1.3077339422        1.7902137050
 C          2.8565692567       -0.2204750252        1.1243814943
 C          2.0764284598        0.0335556022       -0.0313404096
 C          2.4487472619        1.1201305383       -0.8377565307
 C          2.0454618125        1.7799237025       -2.0309535122
 C          2.9154375887        2.8109405786       -2.2351843387
 N          3.8437829380        2.8432101936       -1.2407048615
 C          3.5934755661        1.8301069289       -0.3717077476
 N          4.3298621044        1.5904446421        0.7171745194
 C          3.9597605353        0.5703918449        1.4586468111
 H         -0.6959726471        0.6976417474        0.0059406297
 H         -0.5082673311        0.9088602970       -1.7298196274
 H         -2.9134195628        0.8363282406       -1.1502101157
 H         -2.4791363634       -0.5537703021       -2.1429613154
 H         -1.4274228046       -1.5170022926        1.3047609584
 H         -2.5056540828       -2.7895661610        0.7157140438
 H         -1.4276352495       -2.5768677764       -1.5520225450
 H         -0.2976774849       -3.1298701318       -0.3329013244
 H          0.7269133885       -2.5246282209        1.3675163305
 H          1.2258804621        1.5404684180       -2.6759609580
 H          2.9326289278        3.5285599617       -3.0309658918
 H          4.5463326004        0.3659874709        2.3413609452
 H          4.6020638563        3.4980165388       -1.1498258362
 H          1.4303192301       -0.6450633988       -2.5906374961
 H          1.0315474753       -2.3486997749       -2.4216049552
 H         -0.1357483892       -1.2414647562       -3.1509313361
 H         -3.7128126179        1.2440206723        2.7240202774
 H         -2.6006186548        1.6711622274        1.4022809836
 H         -2.2099085736        0.3190656101        2.5214121848
  42
        -67.90634395
 C          0.2757081089       -0.8633527730        2.2174301514
 C         -0.0489166700       -0.7031270432        0.7279498937
 C         -1.0341315838       -1.8183223149        0.3300901349
 C         -1.8146206942       -1.4434410503       -0.9255082891
 N         -2.6583856640       -0.2840707599       -0.6796816584
 C         -2.2161986331        0.5921068272        0.3928764805
 C         -0.6949660318        0.6667555340        0.4037812550
 S         -4.2824299143       -0.5071203717       -0.7931572733
 O         -4.8982971084        0.8027287835       -0.7497916258
 O         -4.5301519559       -1.2905751752       -1.9861690364
 C         -4.8537539663       -1.4536301232        0.6314548800
 N          1.1991298087       -0.7996404377       -0.0292080866
 C          1.5150760440       -1.6960130561       -1.0085308367
 N          2.6852903237       -1.5266382154       -1.5415191015
 C          3.2139675893       -0.4367695701       -0.8957802563
 C          2.2851132676        0.0418254169        0.0618827035
 C          2.6558085205        1.1649226210        0.8174958724
 C          2.1439978315        2.0041964631        1.8449122913
 C          3.0955741793        2.9456878853        2.1082068781
 N          4.1797695876        2.7506183602        1.3092446551
 C          3.9497220630        1.6771358082        0.5096793093
 N          4.8269152506        1.2247159344       -0.3911715095
 C          4.4566164800        0.1735477563       -1.0880191829
 H         -0.5122077518       -2.7627536045        0.1914730062
 H         -1.7340312205       -1.9561821764        1.1538485247
 H         -1.1319051881       -1.2024310607       -1.7473560215
 H         -2.4639656493       -2.2518144128       -1.2629433920
 H         -2.6546593721        1.5715434962        0.1975590718
 H         -2.5787198048        0.2437160853        1.3668862393
 H         -0.3885412398        1.4151389229        1.1293670676
 H         -0.3584839228        0.9982957991       -0.5794545476
 H          0.8611700864       -2.4805434040       -1.3273231131
 H          1.1992524069        1.9407086559        2.3434147138
 H          3.0695610457        3.7466260194        2.8196977467
 H          5.1552528264       -0.2023154160       -1.8200639320
 H          5.0219902403        3.3006544296        1.2956457253
 H          0.5203991968       -1.9012824834        2.4312816693
 H          1.1265860032       -0.2530603823        2.4996660105
 H         -0.5805071505       -0.5727762005        2.8185314866
 H         -4.3014147664       -2.3823099703        0.6646510776
 H         -5.9055459033       -1.6393029662        0.4629983874
 H         -4.7105590912       -0.8507010973        1.5166709315
  42
        -67.90629236
 C          0.6669814792       -3.0447748161        1.7995563888
 C          0.0181350999       -1.9817146421        0.9050160902
 C         -1.0757358720       -2.6047805580        0.0171411381
 C         -1.7701511987       -1.5369081528       -0.8221683899
 N         -2.3841216994       -0.5494656678        0.0517625109
 C         -1.4059405372        0.0995263580        0.9133740099
 C         -0.6978383303       -0.9451944766        1.7684853796
 S         -3.2747425865        0.5721427707       -0.8201799977
 O         -3.6508760962        1.6326688138        0.0902405336
 O         -2.5361112249        1.0064835921       -1.9963707365
 C         -4.7442973674       -0.3275741371       -1.3111968415
 N          1.0755124991       -1.4022743224        0.0663897341
 C          1.6027197244       -2.1494032810       -0.9507126033
 N          2.5630253264       -1.5858664515       -1.6084244648
 C          2.7266785863       -0.3686259183       -1.0013201550
 C          1.8050838846       -0.2276354623        0.0751941949
 C          1.8897335443        0.9747429125        0.8095025460
 C          1.2888159144        1.6324528749        1.9216748400
 C          1.9115745562        2.8352756083        2.0782222914
 N          2.8767695437        2.9851292819        1.1338178625
 C          2.8933796477        1.8802201666        0.3455844732
 N          3.7439467406        1.7421558123       -0.6742839243
 C          3.6550330843        0.6159733233       -1.3428463606
 H         -0.6842412805       -3.3764367702       -0.6409024750
 H         -1.8127229866       -3.0630427173        0.6752240035
 H         -1.0599206539       -1.0485252533       -1.5059130378
 H         -2.5625109735       -1.9847804425       -1.4195947568
 H         -0.6909724764        0.6674029436        0.3023037638
 H         -1.9588013168        0.8086664728        1.5304063875
 H         -1.4471240511       -1.4656790248        2.3640277908
 H          0.0070093824       -0.4795894835        2.4485794155
 H          1.2603776151       -3.1360493699       -1.1844825937
 H          0.4836789221        1.3063026190        2.5430267571
 H          1.7248651319        3.5963460932        2.8090390024
 H          4.3325772615        0.4744345701       -2.1709409461
 H          3.4890898742        3.7742584574        1.0138127362
 H          1.4268804970       -2.5870763389        2.4286506793
 H         -0.0808890881       -3.5061030787        2.4362910176
 H          1.1391340661       -3.8167302695        1.1981436242
 H         -5.0051194319       -0.9752529044       -0.4859089391
 H         -4.5308662550       -0.8764264764       -2.2176117957
 H         -5.5160003388        0.4119219565       -1.4816569331
  42
        -67.90628967
 C          0.6688381376       -3.0366320412        1.8057709034
 C          0.0178783095       -1.9774384170        0.9083515395
 C         -1.0767147185       -2.6043458114        0.0240624383
 C         -1.7706007535       -1.5397719707       -0.8200017513
 N         -2.3821782376       -0.5471517238        0.0496519390
 C         -1.4036803345        0.1047724314        0.9084577261
 C         -0.6985666101       -0.9381230431        1.7681453392
 S         -3.2773680984        0.5679705111       -0.8249898436
 O         -3.6503834425        1.6338038709        0.0803391718
 O         -2.5455932083        0.9954831128       -2.0077161577
 C         -4.7471035502       -0.3392582062       -1.3020752598
 N          1.0732315664       -1.3991150403        0.0666125457
 C          1.5949887885       -2.1442380971       -0.9546597429
 N          2.5538214984       -1.5805857248       -1.6144267283
 C          2.7224583359       -0.3655838119       -1.0041271804
 C          1.8050892958       -0.2258622514        0.0760980055
 C          1.8943673855        0.9743471827        0.8134641644
 C          1.2988075458        1.6302831595        1.9295908859
 C          1.9246830365        2.8313661534        2.0872938628
 N          2.8867469644        2.9817619208        1.1397954476
 C          2.8979898710        1.8791261806        0.3483741621
 N          3.7447051231        1.7423889071       -0.6748290721
 C          3.6516545201        0.6181154009       -1.3459667557
 H         -0.6862797715       -3.3799297153       -0.6299199863
 H         -1.8137012950       -3.0587303691        0.6848006443
 H         -1.0604671517       -1.0561512570       -1.5072478273
 H         -2.5643910588       -1.9894027637       -1.4142393005
 H         -0.6871318180        0.6687995072        0.2956472344
 H         -1.9558143303        0.8177146180        1.5217682492
 H         -1.4500975946       -1.4560947922        2.3630420902
 H          0.0052441239       -0.4719193750        2.4486976176
 H          1.2498043172       -3.1294360665       -1.1902371329
 H          0.4954029380        1.3041171502        2.5531357324
 H          1.7428939641        3.5907962588        2.8210339526
 H          4.3258599786        0.4780001863       -2.1768862309
 H          3.4995335192        3.7703534508        1.0193092299
 H         -0.0774683213       -3.4957560645        2.4459796899
 H          1.1400921434       -3.8106000151        1.2061433738
 H          1.4298477570       -2.5758693227        2.4312727389
 H         -4.5417977933       -0.8772278269       -2.2166400295
 H         -5.5281145546        0.3945881386       -1.4538080291
 H         -4.9890256068       -0.9970221473       -0.4790668000
  42
        -67.90623661
 C          1.0033383328       -2.1773676111       -2.1848842084
 C         -0.0484543626       -1.5773394526       -1.2419746894
 C         -0.8449220142       -0.4504944848       -1.9344118354
 C         -2.2000607906       -0.1959379981       -1.2503071574
 N         -2.1697487508       -0.7576796322        0.0802908828
 C         -2.1762430171       -2.2021938320        0.0632366167
 C         -1.0189867984       -2.6959287396       -0.8262916946
 S         -2.9079905384        0.0687568820        1.2969738510
 O         -4.0547273149        0.8076395205        0.7933949475
 O         -3.1839922883       -0.8651009947        2.3682942694
 C         -1.6606451396        1.2392515865        1.8268355084
 N          0.6585985259       -1.0264055156       -0.0884987340
 C          0.6089876386       -1.4677516695        1.1989449486
 N          1.3316381876       -0.7844671270        2.0339821021
 C          1.9295148313        0.1883309547        1.2708282809
 C          1.5252047577        0.0418118109       -0.0794012967
 C          2.0802992779        0.9244891409       -1.0195807568
 C          2.0580997218        1.1770415709       -2.4197614879
 C          2.8890833268        2.2349069714       -2.6494592224
 N          3.4331339787        2.6659358800       -1.4786744912
 C          2.9705600909        1.8892141906       -0.4652705658
 N          3.3328958397        2.0422800819        0.8117277371
 C          2.8169085230        1.1917797081        1.6708258177
 H         -0.2565102176        0.4619860110       -1.9136781992
 H         -1.0129437508       -0.7251684182       -2.9740636043
 H         -2.4132260208        0.8676204113       -1.1562933942
 H         -3.0206275136       -0.6495324458       -1.8206590441
 H         -2.0915540186       -2.5290493123        1.0991746856
 H         -3.1363020073       -2.5739598800       -0.3218049355
 H         -1.4294817165       -3.1035144961       -1.7493518365
 H         -0.4735265007       -3.4966595513       -0.3291334498
 H          0.0325061798       -2.3114862837        1.5124602099
 H          1.5133359991        0.6517521616       -3.1770890942
 H          3.1295852875        2.7109454411       -3.5789296548
 H          3.1113314246        1.2972374936        2.7038728918
 H          4.0832829439        3.4248923038       -1.3631215717
 H          1.5145200942       -2.9992307783       -1.6888857212
 H          0.5335913320       -2.5556725032       -3.0870710760
 H          1.7449477007       -1.4343051417       -2.4580108657
 H         -2.0992652635        1.8489538240        2.6050422120
 H         -1.3808179258        1.8427035830        0.9749195755
 H         -0.8241345335        0.6682914585        2.2072403712
  42
        -67.90620916
 C          1.0226436579       -2.1801017965        2.1738891831
 C         -0.0402030556       -1.5744251181        1.2473597300
 C         -1.0131277001       -2.6916079630        0.8349803475
 C         -2.1985606317       -2.1822388873       -0.0073380715
 N         -2.1372475498       -0.7397591134       -0.0851665713
 C         -2.1468983815       -0.1237509859        1.2222693286
 C         -0.8337611752       -0.4579471193        1.9557194440
 S         -2.9264717110        0.0477791325       -1.3012837663
 O         -3.2132085976       -0.9151609670       -2.3435728537
 O         -4.0760301859        0.7732966524       -0.7834903629
 C         -1.7166865216        1.2271907687       -1.8927023121
 N          0.6509155186       -1.0118800728        0.0902772138
 C          0.5631165035       -1.4256046306       -1.2041638041
 N          1.2747604687       -0.7348404049       -2.0425508537
 C          1.9023718796        0.2155038068       -1.2749541012
 C          1.5266259167        0.0486919943        0.0811976268
 C          2.1072585453        0.9126662405        1.0234328671
 C          2.1121649832        1.1471982732        2.4269962368
 C          2.9548131386        2.1960015363        2.6555706229
 N          3.4813275485        2.6381572275        1.4811135112
 C          2.9945698950        1.8784661766        0.4660079673
 N          3.3340350977        2.0474392910       -0.8153152443
 C          2.7919155998        1.2160464145       -1.6770569887
 H         -0.4746508852       -3.4741364128        0.3024560011
 H         -1.3933497300       -3.1266681251        1.7583279583
 H         -2.1829578453       -2.5523583801       -1.0321616258
 H         -3.1505935736       -2.4965609031        0.4428988346
 H         -2.2671766918        0.9486966866        1.0788553879
 H         -3.0164074441       -0.4794726132        1.7901681037
 H         -1.0587315696       -0.7819940641        2.9700041484
 H         -0.2181099160        0.4346188884        2.0120290334
 H         -0.0374817300       -2.2513744155       -1.5206415088
 H          1.5779704021        0.6167912166        3.1884121851
 H          3.2148609064        2.6580981858        3.5868064726
 H          3.0658006528        1.3353020035       -2.7142738035
 H          4.1350861096        3.3937929790        1.3641019406
 H          0.5662770212       -2.5472678364        3.0874880061
 H          1.5140504912       -3.0110339992        1.6730367799
 H          1.7785548041       -1.4449796039        2.4279629112
 H         -0.8695077094        0.6620213668       -2.2582737777
 H         -1.4431702435        1.8753184209       -1.0722421003
 H         -2.1808031444        1.7898502045       -2.6912513507
  42
        -67.90618197
 C          0.9585769159       -2.1555531321       -2.2035802703
 C         -0.0707027071       -1.5735548910       -1.2244000114
 C         -0.8823789583       -0.4327504451       -1.8824697804
 C         -2.2986900391       -0.3181218320       -1.2975707683
 N         -2.2874109962       -0.8088742609        0.0578995275
 C         -2.1493591204       -2.2415211301        0.1495344310
 C         -1.0273836256       -2.7010630659       -0.8001287304
 S         -2.8738353122        0.1027729924        1.2800290322
 O         -3.9795904364        0.9163924218        0.8035999189
 O         -3.1625409050       -0.7758462805        2.3942565900
 C         -1.5257645845        1.2004068208        1.7201580237
 N          0.6694330132       -1.0450759793       -0.0805703660
 C          0.6984652004       -1.5429209556        1.1873403626
 N          1.4562233779       -0.8844222149        2.0109917407
 C          2.0005022122        0.1276544540        1.2591973344
 C          1.5272598699        0.0306381522       -0.0727668865
 C          2.0267610943        0.9532969989       -1.0051285727
 C          1.9336240021        1.2540279454       -2.3923844055
 C          2.7437488885        2.3274103119       -2.6242720016
 N          3.3411018520        2.7224989851       -1.4666050781
 C          2.9357085274        1.9057524932       -0.4602740972
 N          3.3606101119        2.0141041998        0.8019795358
 C          2.8977213577        1.1251578460        1.6523151005
 H         -0.3570446975        0.5058874237       -1.7300908538
 H         -0.9537422002       -0.6143924409       -2.9533278812
 H         -2.6456591485        0.7138147192       -1.2729877850
 H         -3.0161039600       -0.9014719316       -1.8863411053
 H         -1.9535347660       -2.4713546278        1.1962826922
 H         -3.0933106608       -2.7338086226       -0.1231985735
 H         -1.4762213936       -3.0783927544       -1.7184307349
 H         -0.4674457080       -3.5195190633       -0.3501468799
 H          0.1577642691       -2.4125936882        1.4937428061
 H          1.3557461944        0.7485328754       -3.1381274597
 H          2.9348585487        2.8383319411       -3.5466518788
 H          3.2441583051        1.1929772519        2.6723143326
 H          3.9898931119        3.4834162772       -1.3564689220
 H          1.5044437364       -2.9662628868       -1.7263264263
 H          0.4639211093       -2.5444558280       -3.0877710978
 H          1.6738587676       -1.3966095342       -2.5036135735
 H         -1.2166596256        1.7256109119        0.8273474900
 H         -0.7288020584        0.5936601075        2.1281956599
 H         -1.9027835527        1.8905931884        2.4623629216
