  42
        -67.91566786
 C         -0.1901554835       -3.4183686148        0.0014858743
 C          0.0004625190       -1.9006339755        0.0007373809
 C         -0.6356203685       -1.2922053843       -1.2615999334
 C         -2.1635003972       -1.3668402608       -1.2210981320
 N         -2.7128151244       -0.8183163197        0.0001766273
 C         -2.1635332712       -1.3656122230        1.2220288212
 C         -0.6356038703       -1.2912362154        1.2626072653
 S         -3.1759178950        0.7732494038       -0.0006446852
 O         -2.7521279042        1.4161800868        1.2291195584
 O         -2.7523491414        1.4147461077       -1.2312277791
 C         -4.9628794416        0.6567954974       -0.0003191928
 N          1.4314205876       -1.5848181342        0.0004059838
 C          2.4518436887       -2.4927547292       -0.0003526416
 N          3.6402778396       -1.9754591937       -0.0010604695
 C          3.4340904336       -0.6193394932       -0.0008165287
 C          2.0406808082       -0.3496188645        0.0000139957
 C          1.6483574451        0.9990343009        0.0003388723
 C          0.4646212590        1.7887520355        0.0008208874
 C          0.8543449013        3.0964125611        0.0011661786
 N          2.2126458683        3.1820050756        0.0007581561
 C          2.7312800120        1.9266614518        0.0001329992
 N          4.0421625492        1.6711648021       -0.0005820003
 C          4.3866823226        0.4026161043       -0.0010995586
 H         -0.3431462828       -0.2461787756       -1.3510317695
 H         -0.2715959159       -1.8190000432       -2.1448710919
 H         -2.5741339198       -0.7816590481       -2.0430878786
 H         -2.5077985583       -2.3996650842       -1.3105252359
 H         -2.5741034170       -0.7795216454        2.0434035569
 H         -2.5080070856       -2.3982872450        1.3125155494
 H         -0.2717728936       -1.8175504407        2.1462481112
 H         -0.3428809420       -0.2452509820        1.3514432501
 H          2.2979547099       -3.5506905659       -0.0003037894
 H         -0.5588761072        1.4699851677        0.0008470947
 H          0.2387042320        3.9734621486        0.0016193463
 H          5.4428556766        0.1806950224       -0.0015692269
 H          2.7615250147        4.0252495512        0.0009235022
 H          0.2523224447       -3.8626260987       -0.8860219046
 H          0.2533694018       -3.8617966897        0.8888931798
 H         -1.2488546057       -3.6510541501        0.0022104541
 H         -5.3587034498        1.6633865036        0.0013050438
 H         -5.2507768595        0.1227634430        0.8938147207
 H         -5.2513498706        0.1254391003       -0.8958629880
  42
        -67.91446159
 C          0.2321170030       -1.3144190496        1.9780063264
 C         -0.1220372649       -0.9272770598        0.5386642492
 C         -1.0260534646       -1.9963048903       -0.0936150751
 C         -2.4191030665       -1.9932487870        0.5398565437
 N         -3.0538297292       -0.6947638492        0.4379097651
 C         -2.2606509720        0.3726522413        1.0136516123
 C         -0.8530336579        0.4229684245        0.4214955177
 S         -3.7812702962       -0.3559290435       -1.0292739812
 O         -3.4154656837        0.9753702920       -1.4757984167
 O         -3.5271848421       -1.4239588859       -1.9791101390
 C         -5.5178974891       -0.3672236994       -0.5938026389
 N          1.1311615530       -0.8194852516       -0.2113228337
 C          1.5102833010       -1.5574081063       -1.2933403900
 N          2.6603772723       -1.2297792479       -1.7968604777
 C          3.1070521550       -0.1949250669       -1.0122018592
 C          2.1533658729        0.0769845539        0.0002956549
 C          2.4531498669        1.0972221600        0.9163721966
 C          1.8998644190        1.7255879787        2.0666888191
 C          2.7836121177        2.6863953320        2.4640165385
 N          3.8620559049        2.7020721865        1.6343141152
 C          3.6993219519        1.7471095218        0.6822558313
 N          4.5932088158        1.5006949239       -0.2802259092
 C          4.2961134442        0.5323611197       -1.1180546368
 H         -1.1628600418       -1.7825602323       -1.1567748150
 H         -0.5842888640       -2.9871003159        0.0152976765
 H         -3.0525008882       -2.7029697305        0.0092565282
 H         -2.3778350275       -2.2653867520        1.5955118521
 H         -2.7744443401        1.3080336024        0.7962388516
 H         -2.2328327134        0.2201332173        2.0941624411
 H         -0.2835320931        1.2164233521        0.8985614356
 H         -0.9465688075        0.6696891885       -0.6408988447
 H          0.9162695422       -2.3500737475       -1.6984162138
 H          0.9742439262        1.5087867120        2.5595571144
 H          2.7127319015        3.3637822923        3.2913031282
 H          5.0120061863        0.3196556991       -1.8974899077
 H          4.6607501441        3.3103022440        1.7000529270
 H          1.0235833962       -0.6781477180        2.3590879968
 H         -0.6290712677       -1.2282596219        2.6302438547
 H          0.5866853712       -2.3423230942        2.0004011616
 H         -5.7417400629       -1.3453357529       -0.1928302477
 H         -6.0871849257       -0.1726436117       -1.4928357632
 H         -5.6683736147        0.4106748086        0.1408695091
  42
        -67.91379772
 C          0.2117301417       -0.6940900758        2.4215593726
 C         -0.1749455073       -0.7395538518        0.9375492694
 C         -1.1431733757       -1.9155862863        0.7277865017
 C         -1.8000027358       -1.9514048225       -0.6555980307
 N         -2.3940464628       -0.6803534342       -1.0231335309
 C         -1.4562687351        0.4189319894       -0.9170709523
 C         -0.8951618385        0.5476276847        0.4972915119
 S         -3.9171099438       -0.4068419725       -0.3943233883
 O         -4.1053336130       -1.0621893748        0.8903166128
 O         -4.1596023502        1.0209115345       -0.3965729115
 C         -4.9808877647       -1.1825377206       -1.6074148499
 N          1.0530485409       -0.8917827114        0.1603306764
 C          1.4257928448       -1.9636658085       -0.5966209457
 N          2.5651571310       -1.8301959412       -1.2018702865
 C          3.0189000510       -0.5890162718       -0.8313416409
 C          2.0821902310        0.0151915198        0.0447552755
 C          2.4092192479        1.2749014962        0.5709440840
 C          1.8935929788        2.2436643612        1.4766816753
 C          2.7916291198        3.2702320796        1.5210773833
 N          3.8433244186        3.0080440281        0.6983888188
 C          3.6509250176        1.7995862794        0.1088597126
 N          4.5206473094        1.2423830544       -0.7388663097
 C          4.2050141888        0.0524826871       -1.1992685949
 H         -0.6457671789       -2.8641765770        0.9285803042
 H         -1.9446985976       -1.7977440250        1.4599046155
 H         -1.0830043149       -2.2022307118       -1.4408555104
 H         -2.5953983960       -2.6958636653       -0.6490268493
 H         -0.6555874389        0.2457591079       -1.6417178052
 H         -1.9970832663        1.3253217041       -1.1874414972
 H         -1.7297859220        0.7336057982        1.1769220720
 H         -0.2205019140        1.3986868510        0.5281737899
 H          0.8442373809       -2.8578051223       -0.6766843805
 H          0.9858391507        2.2036445604        2.0441802774
 H          2.7477795516        4.1759188299        2.0922776346
 H          4.9049432606       -0.4146442751       -1.8752128796
 H          4.6469428544        3.5943422831        0.5476781804
 H          0.9761067632        0.0549500215        2.6005612314
 H         -0.6588075365       -0.4621010757        3.0279758747
 H          0.6031661259       -1.6613324837        2.7288925326
 H         -4.7479839881       -2.2370628457       -1.6425501103
 H         -4.7832821396       -0.6958865836       -2.5515839829
 H         -6.0029922221       -1.0230029256       -1.2898654721
  42
        -67.91358243
 C          0.2610687681       -0.7162603878        2.4214959787
 C         -0.1447098620       -0.7547103142        0.9421282003
 C         -1.0967513709       -1.9444012472        0.7302064951
 C         -1.7394750436       -1.9801954973       -0.6579488974
 N         -2.4010747702       -0.7323553641       -0.9773711125
 C         -1.5157742421        0.4095740578       -0.8606396714
 C         -0.8905867660        0.5262967879        0.5294379568
 S         -3.9351804853       -0.5122531517       -0.3584748134
 O         -4.4693119207       -1.8062612726        0.0152433474
 O         -3.9610051025        0.4930233592        0.6911916977
 C         -4.8344471240        0.1040496144       -1.7781043831
 N          1.0763440886       -0.8840222103        0.1495940798
 C          1.4654415965       -1.9520993626       -0.6048596856
 N          2.5966670604       -1.7974852839       -1.2204403651
 C          3.0286450677       -0.5462681565       -0.8575067517
 C          2.0878414378        0.0416212306        0.0250859131
 C          2.3968488885        1.3068875623        0.5491477589
 C          1.8733524511        2.2645057432        1.4623400825
 C          2.7530178302        3.3071946268        1.4988724677
 N          3.8000833317        3.0659215876        0.6638640442
 C          3.6240588274        1.8546508298        0.0751449072
 N          4.4958825967        1.3136006202       -0.7808969587
 C          4.1989484223        0.1172786555       -1.2370355695
 H         -0.5895365152       -2.8869852784        0.9349113158
 H         -1.9063944326       -1.8384710332        1.4566970463
 H         -1.0052657037       -2.1624575977       -1.4459658308
 H         -2.5006715706       -2.7597275565       -0.6880956565
 H         -0.7404719668        0.3042847929       -1.6251665893
 H         -2.1021721892        1.3038645334       -1.0671136146
 H         -1.6920751264        0.7094433595        1.2465054316
 H         -0.2174043860        1.3790788491        0.5293777687
 H          0.9018420449       -2.8586046589       -0.6758529742
 H          0.9739396061        2.2053666633        2.0412168217
 H          2.6992089197        4.2107644298        2.0725028064
 H          4.9016525820       -0.3377430083       -1.9183850664
 H          4.5921307679        3.6661449655        0.5068568431
 H          0.6759400922       -1.6783938282        2.7140260524
 H          1.0130254384        0.0462481837        2.5967948534
 H         -0.6047991541       -0.5068668703        3.0425732848
 H         -4.8160121583       -0.6781264545       -2.5232206053
 H         -4.3400617909        0.9996721822       -2.1258148082
 H         -5.8455283365        0.3182279591       -1.4578501160
  42
        -67.91330820
 C          0.8333123049       -2.3146789832       -2.0481338057
 C         -0.1894672403       -1.7091898848       -1.0756680304
 C         -1.0494625712       -0.6324448142       -1.7772715683
 C         -2.5070735348       -0.6309037211       -1.3011360528
 N         -2.6174462505       -0.9720851000        0.1008733705
 C         -2.2086709723       -2.3342929656        0.3872934381
 C         -1.1104354138       -2.8286926093       -0.5668795140
 S         -2.2154062654        0.2342129235        1.1730187095
 O         -1.7726026076       -0.3717304025        2.4110670976
 O         -1.3215012274        1.2163143816        0.5867555302
 C         -3.8054201047        1.0131168255        1.4548239751
 N          0.5681225235       -1.1037661933        0.0206436377
 C          0.7020420195       -1.5716481321        1.2942322117
 N          1.4637995634       -0.8553118895        2.0613544073
 C          1.8859788319        0.1815097431        1.2650965559
 C          1.3518966039        0.0245780169       -0.0369452601
 C          1.7487843773        0.9469487672       -1.0157278749
 C          1.5868780251        1.1909518488       -2.4079140982
 C          2.3065511545        2.3110734369       -2.7050077285
 N          2.9145752976        2.7879741141       -1.5836819717
 C          2.6050144671        1.9783442797       -0.5372711253
 N          3.0727008313        2.1564205137        0.7022534005
 C          2.7190316090        1.2540122773        1.5916819243
 H         -0.6298707191        0.3467435511       -1.5585303790
 H         -1.0277328195       -0.7920417604       -2.8543796887
 H         -2.9325125832        0.3624271236       -1.4352595986
 H         -3.1095773389       -1.3547733597       -1.8529707486
 H         -1.8883496354       -2.3399526180        1.4289899935
 H         -3.0905257115       -2.9766443360        0.2963898666
 H         -1.5769216524       -3.2636017923       -1.4513397974
 H         -0.5270143675       -3.6122597162       -0.0850591446
 H          0.2451060896       -2.4735680045        1.6437173041
 H          1.0227020607        0.6162779915       -3.1125017916
 H          2.4288226651        2.8023522712       -3.6494136520
 H          3.1031359155        1.3764294786        2.5934509699
 H          3.5072623082        3.5982785848       -1.5205611888
 H          1.5100098794       -1.5474006412       -2.4123671794
 H          1.4231123320       -3.0737551555       -1.5387392509
 H          0.3278150078       -2.7731268516       -2.8922519612
 H         -4.1790806519        1.3706041333        0.5060203938
 H         -3.6474961095        1.8330998250        2.1426258838
 H         -4.4519127856        0.2610773844        1.8836247595
  42
        -67.91304703
 C          0.3015580812       -1.2645229555        2.3224460512
 C         -0.1318573988       -0.9698087258        0.8796626973
 C         -1.1084690317       -2.0721890958        0.4304967084
 C         -1.7704990013       -1.8014668778       -0.9251008189
 N         -2.3476572917       -0.4803444148       -1.0083788553
 C         -1.4634237382        0.5911662745       -0.6163064617
 C         -0.8667433503        0.3799923259        0.7756298961
 S         -3.9643794186       -0.2980724790       -0.8137231727
 O         -4.2943528724        1.0489629205       -1.2330673347
 O         -4.6028585585       -1.3722670605       -1.5476040782
 C         -4.4251490577       -0.4671520669        0.9200203144
 N          1.0728025766       -0.9315238565        0.0544270262
 C          1.4363394463       -1.8101764392       -0.9234751458
 N          2.5514105876       -1.5252029898       -1.5218863394
 C          2.9978556924       -0.3803501236       -0.9101954916
 C          2.0847134344        0.0006435064        0.1048871019
 C          2.4166921657        1.1193367676        0.8856974686
 C          1.9295677301        1.8493626818        2.0060384514
 C          2.8148132217        2.8604901683        2.2427096040
 N          3.8317111971        2.8127967594        1.3399206666
 C          3.6302726958        1.7612273802        0.5043111867
 N          4.4726658179        1.4236591116       -0.4766418367
 C          4.1583883353        0.3533772816       -1.1718290338
 H         -0.6049182238       -3.0378552963        0.3979128966
 H         -1.8808571275       -2.1339446581        1.1968790510
 H         -1.0458431015       -1.8892702947       -1.7401564241
 H         -2.5799314649       -2.5077031645       -1.1119115942
 H         -0.6615116719        0.6553883186       -1.3603428547
 H         -2.0478266228        1.5099779182       -0.6607475753
 H         -1.6555882030        0.3985974215        1.5258214059
 H         -0.1838008696        1.2018118408        0.9711312555
 H          0.8693117263       -2.6818900290       -1.1744530693
 H          1.0531582966        1.6602636841        2.5915325234
 H          2.7860384456        3.6145995053        3.0035593954
 H          4.8388074853        0.0592084799       -1.9566331522
 H          4.6197247532        3.4361571528        1.2908624358
 H         -0.5427840750       -1.1825115938        2.9993474960
 H          0.7031457238       -2.2731907689        2.3857604184
 H          1.0750349394       -0.5733379464        2.6404426208
 H         -3.9617426321        0.3372186768        1.4729102355
 H         -4.1153754465       -1.4446693534        1.2601821565
 H         -5.5026614996       -0.3778883253        0.9489507328
  42
        -67.91289253
 C         -0.1399624124       -3.3286925268       -0.0640641528
 C          0.1403406196       -1.8269653208       -0.0415488872
 C         -0.4142248451       -1.1695671185       -1.3223592518
 C         -1.9280345212       -0.9833256975       -1.2738635664
 N         -2.2773608324       -0.2510495557       -0.0739790113
 C         -1.9751308431       -1.0045069383        1.1263124688
 C         -0.4650624106       -1.2000489092        1.2312406562
 S         -3.7402158950        0.5444027781       -0.0515727280
 O         -4.1685311784        0.7508373660       -1.4197010104
 O         -4.6900788671       -0.1477675538        0.8037786943
 C         -3.3192630422        2.1242812228        0.6769226489
 N          1.5825704489       -1.5842646230       -0.0102908953
 C          2.5835686373       -2.5108622314       -0.0070810359
 N          3.7813563229       -2.0128591300        0.0226069718
 C          3.5991767219       -0.6513909657        0.0409533701
 C          2.2126413716       -0.3624866824        0.0197744702
 C          1.8257858583        0.9854736345        0.0344437488
 C          0.6393513527        1.7717187566        0.0239286059
 C          1.0317458859        3.0786679307        0.0572138450
 N          2.3912057993        3.1617953654        0.0883143727
 C          2.9103417495        1.9066565449        0.0739585835
 N          4.2195856086        1.6378741226        0.0943440332
 C          4.5569639499        0.3671070091        0.0767607331
 H          0.0527065334       -0.1967544858       -1.4593681861
 H         -0.1596912126       -1.7888320637       -2.1830243800
 H         -2.2731971992       -0.3944894930       -2.1234327424
 H         -2.4449320300       -1.9524007309       -1.2984327552
 H         -2.3470217689       -0.4399270055        1.9803061230
 H         -2.5020522995       -1.9675906001        1.1134824393
 H         -0.2476163862       -1.8427100444        2.0848235074
 H          0.0005144898       -0.2334496922        1.4098082306
 H          2.4051290849       -3.5655532041       -0.0268874163
 H         -0.3737815262        1.4240382277       -0.0118678339
 H          0.4283291511        3.9643044763        0.0616958317
 H          5.6124561707        0.1408214133        0.0918195128
 H          2.9393571882        4.0048776186        0.1149128557
 H          0.2878388613       -3.7919403374       -0.9494096226
 H          0.2601981760       -3.8130326051        0.8229249426
 H         -1.2130337570       -3.4911784873       -0.0829920039
 H         -2.8089894258        1.9421644900        1.6119701251
 H         -4.2425516291        2.6645738407        0.8376137666
 H         -2.6857313915        2.6354509172       -0.0343049523
  42
        -67.91263599
 C         -0.1544953599       -3.3031339235        0.1045262385
 C          0.1411809602       -1.8048200369        0.0619204606
 C         -0.4650501604       -1.1870830432       -1.2143804929
 C         -1.9708678526       -0.9654050581       -1.1043492259
 N         -2.2545352987       -0.1852851623        0.0851542093
 C         -1.9086972981       -0.9123205141        1.2914703064
 C         -0.3991094124       -1.1261266106        1.3373552468
 S         -3.7675601977        0.5199221714        0.0765959137
 O         -4.7552126259       -0.3744672725       -0.5066999626
 O         -4.0551435962        0.9608157605        1.4251023465
 C         -3.5483376245        1.9513014625       -0.9779370169
 N          1.5851887766       -1.5761234867        0.0188176897
 C          2.5781305356       -2.5111964648        0.0169447821
 N          3.7797775147       -2.0236407253       -0.0273961400
 C          3.6089365158       -0.6609107652       -0.0580489142
 C          2.2251495100       -0.3600171626       -0.0284180256
 C          1.8492079416        0.9909469832       -0.0523389550
 C          0.6695267913        1.7873811193       -0.0373439595
 C          1.0726165235        3.0906515107       -0.0842326107
 N          2.4323670007        3.1619342546       -0.1294685848
 C          2.9409912031        1.9025563889       -0.1094611424
 N          4.2476945020        1.6224888406       -0.1388818429
 C          4.5747614010        0.3491743852       -0.1118576487
 H          0.0122207890       -0.2292439899       -1.4091016849
 H         -0.2625784199       -1.8442192433       -2.0606075185
 H         -2.3291435021       -0.4063738992       -1.9669988022
 H         -2.5169625895       -1.9173697975       -1.0721150035
 H         -2.2380255751       -0.3064329462        2.1358132100
 H         -2.4451229034       -1.8707374002        1.3281841052
 H         -0.1545635829       -1.7416345394        2.2036353768
 H          0.0849277071       -0.1605260401        1.4654518889
 H          2.3906122399       -3.5640481538        0.0487501949
 H         -0.3460938859        1.4480384082        0.0149457519
 H          0.4765530500        3.9813453373       -0.0873438048
 H          5.6282065829        0.1141079809       -0.1325916581
 H          2.9872788619        4.0001753953       -0.1668714518
 H          0.2337839009       -3.8023161320       -0.7795141067
 H          0.2752248638       -3.7602985779        0.9921285333
 H         -1.2292271472       -3.4535871230        0.1337700720
 H         -2.6060274875        2.4039138851       -0.7034404616
 H         -4.3734213909        2.6198597518       -0.7714950073
 H         -3.5622010740        1.6310959719       -2.0096795394
  42
        -67.91259811
 C         -0.1618620746       -3.2907942595       -0.1142699488
 C          0.1404551809       -1.7939295529       -0.0684043604
 C         -0.3970948994       -1.1098394550       -1.3419482056
 C         -1.9052409592       -0.8879079663       -1.2947525061
 N         -2.2489800735       -0.1616414332       -0.0867921165
 C         -1.9676585861       -0.9466882508        1.1007065123
 C         -0.4630046402       -1.1763813831        1.2091261234
 S         -3.7793072394        0.5083183023       -0.0836042328
 O         -4.0325729374        1.0225726067       -1.4127073994
 O         -4.7619139330       -0.4459038706        0.4066395306
 C         -3.6329763323        1.8762922254        1.0651148209
 N          1.5853327650       -1.5712362848       -0.0243132401
 C          2.5743529539       -2.5104439793       -0.0231376281
 N          3.7778614036       -2.0280399692        0.0264457755
 C          3.6125098708       -0.6647083734        0.0619295600
 C          2.2300760949       -0.3578801734        0.0290154632
 C          1.8595526875        0.9946316744        0.0557222336
 C          0.6835087712        1.7965190465        0.0377277911
 C          1.0922075453        3.0977551412        0.0911093657
 N          2.4519956800        3.1628318836        0.1437725725
 C          2.9550908477        1.9012766719        0.1212889778
 N          4.2604425839        1.6155568181        0.1552614976
 C          4.5823403117        0.3410626927        0.1237090463
 H          0.0918532013       -0.1464899691       -1.4685258320
 H         -0.1567448021       -1.7247809200       -2.2098202123
 H         -2.2312053261       -0.2777682331       -2.1375372499
 H         -2.4478288830       -1.8429361055       -1.3335667768
 H         -2.3199900926       -0.3866850805        1.9651501007
 H         -2.5195186911       -1.8952962815        1.0660650009
 H         -0.2633823657       -1.8363167726        2.0538375237
 H          0.0189873879       -0.2212507776        1.4056161179
 H          2.3824950967       -3.5623576735       -0.0595356853
 H         -0.3338304006        1.4632625883       -0.0223766386
 H          0.4996157988        3.9907225197        0.0935320884
 H          5.6347310502        0.1016179566        0.1475249458
 H          3.0103697586        3.9985341376        0.1858071816
 H          0.2658213966       -3.7479883252       -1.0028319334
 H          0.2240501961       -3.7935495317        0.7687639982
 H         -1.2373106396       -3.4361550346       -0.1440365572
 H         -2.6386192085        2.2840905849        0.9490810211
 H         -3.8122415187        1.5113867269        2.0663732733
 H         -4.3832403679        2.6017736520        0.7798447317
  42
        -67.91251157
 C          0.7859087387       -1.9276237232       -2.2427605088
 C          0.0244847493       -1.3144257107       -1.0609677660
 C         -0.7272397391       -0.0350448340       -1.4678386058
 C         -1.6193813153        0.4624954461       -0.3375183417
 N         -2.6135575839       -0.5466161269       -0.0173371946
 C         -1.9891940483       -1.7642416129        0.4734471028
 C         -1.0286783588       -2.3233853878       -0.5760691704
 S         -3.7789097665        0.0204409373        1.0460860970
 O         -3.2983836561       -0.0509323333        2.4175978370
 O         -4.1662980027        1.3424905093        0.6019749578
 C         -5.1532091140       -1.1058813541        0.8165178640
 N          0.9981385687       -0.9932836142       -0.0198634549
 C          1.1179652907       -1.5726714066        1.2085577820
 N          2.0383495483       -1.0581997328        1.9647033357
 C          2.6017539261       -0.0624551541        1.2056124406
 C          1.9689522517       -0.0187291381       -0.0619414585
 C          2.4660650764        0.8979458748       -1.0016139310
 C          2.2658941173        1.2853564265       -2.3560938205
 C          3.1607742669        2.2796460277       -2.6255895014
 N          3.9147528891        2.5423968899       -1.5235341667
 C          3.5284856000        1.7149126461       -0.5181326405
 N          4.0993600604        1.7009576473        0.6902047626
 C          3.6412945103        0.8095898987        1.5408339052
 H         -0.0332733771        0.7600899258       -1.7231480296
 H         -1.3492059823       -0.2564021406       -2.3335056442
 H         -1.0198112248        0.7064692021        0.5544059818
 H         -2.1639104433        1.3596543710       -0.6330244008
 H         -1.4847029173       -1.5529925698        1.4259464092
 H         -2.7810757030       -2.4876078839        0.6631406999
 H         -1.6160111113       -2.6037698724       -1.4500456992
 H         -0.5520253171       -3.2232381422       -0.1890327131
 H          0.5237786369       -2.4024248618        1.5298500965
 H          1.5706419235        0.8831682759       -3.0643321902
 H          3.3107943952        2.8189241349       -3.5393763537
 H          4.1050661615        0.7754576522        2.5152379125
 H          4.6526743145        3.2222057375       -1.4491421856
 H          0.1228600054       -2.0621648968       -3.0909782236
 H          1.6122873531       -1.2901376160       -2.5393419367
 H          1.1905940736       -2.8954807259       -1.9566340380
 H         -5.1741917727       -1.3658300115       -0.2323500559
 H         -6.0468499359       -0.5647494039        1.0990921298
 H         -5.0069638757       -1.9660701759        1.4543542203
  42
        -67.91245519
 C          0.2285015492       -0.8876006376        2.1113339295
 C         -0.0797783736       -0.7973870326        0.6144607372
 C         -0.9854100227       -1.9618514503        0.1808512652
 C         -2.3831698526       -1.8307887311        0.7942965361
 N         -3.0048217586       -0.5607400675        0.4980612125
 C         -2.1987104917        0.6046482550        0.7824976499
 C         -0.7876708069        0.5070639949        0.2000095476
 S         -4.0814245664       -0.4872127417       -0.7388846503
 O         -4.9387137200       -1.6495607803       -0.6227325051
 O         -4.7371459099        0.8018319111       -0.6513040729
 C         -3.2519054368       -0.5748358685       -2.3371708290
 N          1.1961008405       -0.8574492730       -0.1030705931
 C          1.6005248750       -1.8131162364       -0.9890535685
 N          2.7767139643       -1.6160113052       -1.4989490166
 C          3.2190157687       -0.4490399676       -0.9269643844
 C          2.2334464845        0.0442972957       -0.0353846557
 C          2.5223874718        1.2290370465        0.6593654401
 C          1.9395912036        2.0939023240        1.6271974114
 C          2.8328763413        3.0996214094        1.8568497479
 N          3.9446364660        2.9216862592        1.0926699008
 C          3.7946129871        1.7926700942        0.3527130928
 N          4.7198278746        1.3343395028       -0.4955195137
 C          4.4305089816        0.2188670741       -1.1277240235
 H         -1.0755200808       -1.9599608037       -0.9055220176
 H         -0.5596788095       -2.9139774068        0.4974667430
 H         -3.0509011591       -2.5991227216        0.4045922357
 H         -2.3336838322       -1.9399355032        1.8803840140
 H         -2.7334627625        1.4594916687        0.3686794339
 H         -2.1527748192        0.7250105975        1.8682228962
 H         -0.2152369093        1.3737254570        0.5201256196
 H         -0.8346558071        0.5278992883       -0.8905296567
 H          1.0075239100       -2.6664447605       -1.2430845409
 H          0.9897979272        2.0024394717        2.1137072058
 H          2.7468076164        3.9354088104        2.5221538039
 H          5.1714820537       -0.1636183371       -1.8131652722
 H          4.7573822712        3.5140665636        1.0695834001
 H          1.0086082019       -0.1848793216        2.3837150637
 H         -0.6524087128       -0.6771311194        2.7064246912
 H          0.5796384488       -1.8887426729        2.3509500868
 H         -4.0326172023       -0.4702638829       -3.0787423780
 H         -2.7754833556       -1.5410429946       -2.4215558472
 H         -2.5511755885        0.2449084138       -2.4054987300
  42
        -67.91132554
 C          1.0316786550       -2.4743967275        1.7861440706
 C         -0.0902315141       -1.7276271160        1.0543030226
 C         -1.1114604339       -2.7525598138        0.5330553987
 C         -2.4713459599       -2.1064721071        0.1901975830
 N         -2.4041002507       -0.6683174569        0.0813346419
 C         -1.8643791893        0.0622774258        1.2090844445
 C         -0.8551604028       -0.7808626445        1.9929807508
 S         -2.5300451248        0.0967673171       -1.3628492899
 O         -1.5620680801        1.1735010974       -1.4401431266
 O         -2.5079638621       -0.8920211219       -2.4212900466
 C         -4.1691808279        0.8274902877       -1.3110716861
 N          0.5150701485       -0.9640466509       -0.0371550250
 C          0.3552629061       -1.1615616406       -1.3771991178
 N          1.0377296003       -0.3565747447       -2.1307864697
 C          1.6991952142        0.4676440851       -1.2548277837
 C          1.3955409086        0.0870434948        0.0756301353
 C          2.0331486204        0.7888709842        1.1111961895
 C          2.1433643625        0.7795383655        2.5303042027
 C          2.9890414510        1.7929732315        2.8759648584
 N          3.4206319149        2.4421284067        1.7607740194
 C          2.8704427442        1.8526387391        0.6673671087
 N          3.1261207762        2.2387436508       -0.5867532467
 C          2.5497806549        1.5387242376       -1.5390748468
 H         -0.7030931614       -3.2875434811       -0.3221775132
 H         -1.2643977711       -3.4843669981        1.3259856762
 H         -2.8401829233       -2.4635732442       -0.7703876285
 H         -3.2074115028       -2.3467563206        0.9631039328
 H         -1.3865470286        0.9534322051        0.7953798620
 H         -2.6814339713        0.3759505246        1.8684161018
 H         -1.3736383926       -1.3956677389        2.7279005791
 H         -0.1813013120       -0.1094436178        2.5147733025
 H         -0.2873942186       -1.9072720366       -1.7968509739
 H          1.6905570724        0.1046081516        3.2272555316
 H          3.3149424683        2.0936610381        3.8514456418
 H          2.7568450926        1.8289055951       -2.5582554349
 H          4.0565353067        3.2208912254        1.7278784409
 H          0.6550241076       -2.9093103219        2.7065077035
 H          1.4179296193       -3.2696488042        1.1527110104
 H          1.8509077127       -1.8032609377        2.0225488866
 H         -4.8802238290        0.0214502665       -1.1985333966
 H         -4.3189091684        1.3525008473       -2.2446428218
 H         -4.1955464531        1.5109109630       -0.4742419814
  42
        -67.91018423
 C         -0.2792725391       -0.5356942969       -1.7253206146
 C         -0.1237379950       -0.9415898584       -0.2541835325
 C         -0.7191226080        0.1321056533        0.6920440775
 C         -1.8290048893       -0.4218508135        1.5839420478
 N         -2.8496622771       -1.0753453078        0.7890688532
 C         -2.3507705340       -2.1512346589       -0.0631646827
 C         -0.8291083819       -2.2847115786       -0.0055911778
 S         -3.9089466998       -0.0448840163        0.0119103075
 O         -4.0277543598        1.1662233275        0.7962163312
 O         -3.5451446690        0.1591992383       -1.3836737185
 C         -5.4462443243       -0.9565824971        0.0830437768
 N          1.3074374312       -1.0865591560        0.0167501980
 C          1.9900874099       -2.2391722483        0.2798305828
 N          3.2673450732       -2.0860092728        0.4461115963
 C          3.4882122685       -0.7413961100        0.2778880146
 C          2.2589485791       -0.0942365519       -0.0023213633
 C          2.2883680050        1.2897605176       -0.2230277616
 C          1.4023924800        2.3551714561       -0.5377795603
 C          2.1553092381        3.4902575937       -0.6180724273
 N          3.4638198906        3.2035544557       -0.3719067160
 C          3.5844164609        1.8726689344       -0.1282199180
 N          4.7437528279        1.2661264194        0.1431514539
 C          4.6912863045       -0.0323923991        0.3435090732
 H          0.0635327125        0.5659561409        1.3140925468
 H         -1.1661080482        0.9303682092        0.0970237714
 H         -1.4516595249       -1.1358591280        2.3172114563
 H         -2.3205367989        0.3970625768        2.1088139884
 H         -2.8034724883       -3.0892738612        0.2703570607
 H         -2.6727851921       -1.9467461882       -1.0863638870
 H         -0.5247375263       -3.0088285489       -0.7611648639
 H         -0.5470664412       -2.6654007725        0.9760186380
 H          1.5220615667       -3.1988854038        0.3427503047
 H          0.3439659256        2.3035351702       -0.6883962864
 H          1.8406006923        4.4910611677       -0.8368831774
 H          5.6234801739       -0.5317752531        0.5593622201
 H          4.2298900889        3.8557026804       -0.3706333167
 H          0.0382297652       -1.3476817687       -2.3759950225
 H         -1.3159896829       -0.2896369156       -1.9426704840
 H          0.3322931888        0.3349741437       -1.9446738785
 H         -6.2126473056       -0.3444936242       -0.3739446231
 H         -5.6551297162       -1.1316154216        1.1283795683
 H         -5.3113262999       -1.8801104456       -0.4615325550
  42
        -67.90998192
 C          0.1386246668       -0.5236862726        1.9557959007
 C          0.0408353311       -0.7563650673        0.4450523052
 C         -0.7979354724       -2.0091563881        0.1440828531
 C         -2.2680319580       -1.7827136276        0.4902177108
 N         -2.7788702907       -0.6711284987       -0.2891214285
 C         -2.0843057577        0.5697686012       -0.0035688308
 C         -0.6019021183        0.4111567467       -0.3269533970
 S         -4.4390157017       -0.5145810724       -0.3368846862
 O         -5.0191727879       -1.8297983346       -0.1610238627
 O         -4.8902385085        0.4939845079        0.6091559670
 C         -4.7471669826        0.0429229012       -2.0088016373
 N          1.4040282144       -0.9283632891       -0.0598202859
 C          1.9312872066       -2.0382061062       -0.6529181470
 N          3.1693437270       -1.9186142045       -1.0206054829
 C          3.5251806699       -0.6434974672       -0.6568386872
 C          2.4212394411       -0.0020255258       -0.0408113147
 C          2.6078050334        1.3113546807        0.4176041129
 C          1.8926569759        2.3431803997        1.0872308904
 C          2.7426074403        3.4030100689        1.2160031972
 N          3.9513364704        3.1025797953        0.6678335577
 C          3.9099669726        1.8368817787        0.1765255577
 N          4.9479270379        1.2370253684       -0.4136398860
 C          4.7532251331        0.0033477261       -0.8234510892
 H         -0.7400919661       -2.2349874137       -0.9206746618
 H         -0.4330386842       -2.8630163669        0.7143398416
 H         -2.8645792179       -2.6551055288        0.2233820270
 H         -2.3976110941       -1.6000425769        1.5646718889
 H         -2.5218350309        1.3463956379       -0.6291281336
 H         -2.2381130400        0.8627106336        1.0429891252
 H         -0.0874909002        1.3446414767       -0.1162915503
 H         -0.5010982498        0.2003229962       -1.3929708462
 H          1.3788780870       -2.9424719567       -0.7997351452
 H          0.8844700682        2.3254499349        1.4488906052
 H          2.5621628028        4.3581163495        1.6673889536
 H          5.5865913328       -0.4935054076       -1.2964807663
 H          4.7583857205        3.7020109443        0.6299110430
 H          0.8800209353        0.2365185332        2.1782220162
 H         -0.8138555072       -0.2096017881        2.3684610270
 H          0.4422328322       -1.4450664314        2.4479396921
 H         -5.8205931632        0.0765234095       -2.1416642862
 H         -4.2944813239       -0.6857815026       -2.6659652613
 H         -4.3135134534        1.0248667318       -2.1312465060
  42
        -67.90942286
 C         -0.3993456468       -0.4422811477        1.5752980610
 C         -0.1409149543       -0.9788613931        0.1623523567
 C         -0.7993515980       -2.3578055446        0.0056192202
 C         -2.3264277927       -2.2710344703        0.0943426329
 N         -2.8644486904       -1.1417183579       -0.6479383721
 C         -1.9432980673       -0.5813257880       -1.6134689695
 C         -0.6931905323       -0.0258136209       -0.9269164898
 S         -3.8053133658       -0.0442114806        0.1786794564
 O         -3.8186874793       -0.3586171774        1.5971322922
 O         -3.4119311448        1.3127233290       -0.1520869269
 C         -5.4343530427       -0.3561840768       -0.4936665796
 N          1.3074929484       -1.1026726225       -0.0096214726
 C          2.0254715945       -2.2514166117       -0.1780228919
 N          3.3043514153       -2.0771882179       -0.3036729136
 C          3.4875435398       -0.7196551076       -0.2117182229
 C          2.2340972760       -0.0859417990       -0.0207757465
 C          2.2254723433        1.3109570301        0.1045250137
 C          1.3089076040        2.3771128387        0.3122176015
 C          2.0357596445        3.5317714537        0.3359716159
 N          3.3573440058        3.2575257795        0.1563780527
 C          3.5125804867        1.9156828994        0.0139402755
 N          4.6942046242        1.3206736316       -0.1736506207
 C          4.6771819434        0.0107154049       -0.2839044314
 H         -0.5201764918       -2.7769693960       -0.9616217350
 H         -0.4533551983       -3.0290930516        0.7910785427
 H         -2.7611151641       -3.1896392270       -0.3122900421
 H         -2.6530058734       -2.1623863057        1.1292506468
 H         -1.6993641368       -1.3620034629       -2.3355499232
 H         -2.4608741160        0.2282890456       -2.1259617584
 H         -0.9747812623        0.9219740599       -0.4715988992
 H          0.0740107603        0.1703542285       -1.6767213773
 H          1.5808191934       -3.2238130286       -0.2046755189
 H          0.2463187168        2.3196831774        0.4324299537
 H          1.6934122044        4.5382437424        0.4712801153
 H          5.6261631003       -0.4814103413       -0.4328438874
 H          4.1104706910        3.9242761273        0.1345360615
 H          0.1795569890        0.4593538343        1.7531345692
 H         -1.4524253307       -0.2060107872        1.7094040506
 H         -0.1095644726       -1.1845349178        2.3165148810
 H         -5.3770584828       -0.2020135929       -1.5616577015
 H         -6.1227026883        0.3401723574       -0.0338285341
 H         -5.6884546676       -1.3775229810       -0.2489543027
  42
        -67.90940162
 C         -0.4198954910       -0.4207438345        1.5416910717
 C         -0.1445940228       -0.9881086703        0.1439801665
 C         -0.7956959819       -2.3727824684        0.0139247625
 C         -2.3226114820       -2.2877633085        0.1151301191
 N         -2.8679112834       -1.1592340081       -0.6216480198
 C         -1.9675938496       -0.6177152867       -1.6165683812
 C         -0.6908521422       -0.0665612411       -0.9742784639
 S         -3.7818233829       -0.0411405827        0.2067800551
 O         -3.8666937768       -0.4111068318        1.6084877270
 O         -3.3090413869        1.3065574068       -0.0520355519
 C         -5.3952566225       -0.2417490740       -0.5411342126
 N          1.3058433613       -1.1064149328       -0.0117740256
 C          2.0303135666       -2.2530042210       -0.1644454061
 N          3.3092726526       -2.0734914476       -0.2823291007
 C          3.4850178357       -0.7143465618       -0.2015829707
 C          2.2269332275       -0.0848177570       -0.0264583260
 C          2.2104346216        1.3132891306        0.0843043646
 C          1.2877224487        2.3778538457        0.2741913947
 C          2.0095861313        3.5356077065        0.2936117161
 N          3.3335412107        3.2654333456        0.1267374899
 C          3.4955750492        1.9230440045       -0.0021110282
 N          4.6816569412        1.3318347252       -0.1724776815
 C          4.6718453570        0.0207526244       -0.2696837054
 H         -0.5232060479       -2.8047434925       -0.9495697105
 H         -0.4404846903       -3.0311879098        0.8061337796
 H         -2.7604895549       -3.2064663870       -0.2877155439
 H         -2.6424169541       -2.1796638980        1.1521388857
 H         -1.7506048314       -1.4099599168       -2.3349176426
 H         -2.4905276325        0.1903567764       -2.1260270611
 H         -0.9343962967        0.9075088060       -0.5554027297
 H          0.0680611110        0.0734257618       -1.7449109206
 H          1.5898930233       -3.2274948062       -0.1871068713
 H          0.2243323307        2.3178984651        0.3869317929
 H          1.6613255597        4.5415709922        0.4171327186
 H          5.6245193884       -0.4682615142       -0.4045502508
 H          4.0840727293        3.9350651338        0.1047804090
 H         -1.4712997709       -0.1671433597        1.6547686574
 H         -0.1522033276       -1.1521548472        2.3017070597
 H          0.1678459256        0.4762711489        1.7124677631
 H         -6.0630305846        0.4796086952       -0.0896547555
 H         -5.7147786683       -1.2532817597       -0.3365976561
 H         -5.2864308808       -0.0624499313       -1.6010039636
  42
        -67.90929434
 C          0.5182565614       -1.4813264272       -2.1403829659
 C         -0.0596141725       -0.9301911683       -0.8309544358
 C         -0.7783345184        0.4180453604       -1.0590408923
 C         -1.9486657223        0.6294141934       -0.1057091978
 N         -2.9784596785       -0.3956889334       -0.2801673540
 C         -2.4656427429       -1.6428678632       -0.8300071054
 C         -1.0794992040       -1.9355568958       -0.2627442085
 S         -3.8623263665       -0.6012994161        1.1285108806
 O         -4.6995000373       -1.7710736530        0.9630539133
 O         -2.9958498768       -0.6330955121        2.2997102932
 C         -4.8894217330        0.8621524912        1.1799418283
 N          1.0561592083       -0.7387392821        0.0948840095
 C          1.3283684255       -1.4462697378        1.2287464204
 N          2.4161168878       -1.0917476031        1.8408682289
 C          2.9406021179       -0.0807891587        1.0730980582
 C          2.1002633809        0.1470834673       -0.0440877249
 C          2.4988677173        1.1246683058       -0.9682744407
 C          2.0713797987        1.6944174551       -2.1994344543
 C          2.9980312767        2.6332212292       -2.5486081890
 N          3.9835604957        2.6903624514       -1.6113317358
 C          3.7168814616        1.7842570160       -0.6354626361
 N          4.5015283798        1.5831633571        0.4277646023
 C          4.1135069676        0.6537454902        1.2725449158
 H         -0.0807044155        1.2394125428       -0.9106617826
 H         -1.1477741722        0.4601261629       -2.0824095295
 H         -1.5943037091        0.6166981407        0.9328330826
 H         -2.4100397535        1.5978136755       -0.3063945338
 H         -3.1744914395       -2.4209503365       -0.5467396552
 H         -2.4508231295       -1.5621894948       -1.9183926873
 H         -0.7781190419       -2.9569995568       -0.4917639345
 H         -1.1688690221       -1.8346676267        0.8207101323
 H          0.7071197817       -2.2388113509        1.5919020433
 H          1.1982580891        1.4511328607       -2.7683269524
 H          3.0195721561        3.2685305425       -3.4112530147
 H          4.7428369343        0.4763748490        2.1314745035
 H          4.7887196562        3.2933017895       -1.6247041700
 H          1.2160513664       -0.7770435874       -2.5815952469
 H          1.0514304338       -2.4091570649       -1.9434012819
 H         -0.2793368320       -1.6837521113       -2.8480610651
 H         -5.6526116488        0.6894966299        1.9275029741
 H         -5.3243470805        0.9705735746        0.1966301634
 H         -4.2681276838        1.7040885334        1.4500781422
  42
        -67.90863323
 C         -0.7550288882       -2.3175689060       -0.0939820126
 C         -0.1407882631       -0.9221274356        0.0367437188
 C         -0.6623833665       -0.0217267655       -1.1051304290
 C         -1.8774741126        0.8146334807       -0.6730179643
 N         -2.6954417733        0.1561703278        0.3179933220
 C         -2.0284756057       -0.1735895082        1.5651904068
 C         -0.5099262810       -0.3192253138        1.4022044463
 S         -3.9181846282       -0.8105269253       -0.2402703466
 O         -3.7197480023       -1.1192830336       -1.6442886176
 O         -4.0800707102       -1.9548760962        0.6385188208
 C         -5.3572786504        0.2430988741       -0.0799305187
 N          1.3188184908       -1.0256262772       -0.0425841401
 C          2.0407209389       -2.1821235624       -0.1296491439
 N          3.3264780065       -2.0197213050       -0.1572772534
 C          3.5127711392       -0.6620745262       -0.0801087010
 C          2.2537603282       -0.0151036802       -0.0021794603
 C          2.2568287287        1.3847814720        0.0898298526
 C          1.3411752687        2.4665062646        0.1903257435
 C          2.0764876846        3.6144613649        0.2459892575
 N          3.4040219203        3.3210688516        0.1853207298
 C          3.5540561020        1.9746437625        0.0907086286
 N          4.7401073013        1.3640929950        0.0154344003
 C          4.7140306018        0.0527444315       -0.0692099831
 H          0.1269791762        0.6491162981       -1.4433711825
 H         -0.9504226091       -0.6556652136       -1.9444730540
 H         -1.5702672813        1.7720880207       -0.2473652205
 H         -2.5112983886        1.0049048724       -1.5375514606
 H         -2.2413772899        0.6161440556        2.2930283375
 H         -2.4762876643       -1.1016967244        1.9223519714
 H         -0.1264968911       -0.9613180915        2.1959128597
 H         -0.0290283896        0.6527289059        1.4999741192
 H          1.5929273838       -3.1522315905       -0.1720604934
 H          0.2734258169        2.4203452093        0.2163551275
 H          1.7376552936        4.6279910924        0.3246018141
 H          5.6644024562       -0.4552395591       -0.1309900441
 H          4.1653556714        3.9782644399        0.2081053276
 H         -1.8387681737       -2.2449583094       -0.1184326141
 H         -0.4421969213       -2.7905034712       -1.0221313756
 H         -0.4782077465       -2.9503338482        0.7461295431
 H         -6.2093777692       -0.3026575247       -0.4622960348
 H         -5.1754585768        1.1369713779       -0.6593641754
 H         -5.4735891204        0.4625949571        0.9716863325
  42
        -67.90817409
 C          1.0480170534       -2.1585702742        2.2033817912
 C          0.0054492687       -1.5344510555        1.2704159697
 C         -1.0179349262       -2.6155644617        0.8814964132
 C         -2.3271823551       -1.9976774045        0.3610781145
 N         -2.0679642208       -0.6603059814       -0.1361027411
 C         -1.6961342183        0.2857179094        0.9023012927
 C         -0.7844002054       -0.3925618809        1.9343642206
 S         -3.1025603368       -0.0489586532       -1.2773752465
 O         -3.5992193539       -1.1628852326       -2.0578820493
 O         -4.1282979521        0.7758743715       -0.6559979342
 C         -2.0602757165        0.9816891968       -2.3050997765
 N          0.6912435209       -0.9973369793        0.0983956995
 C          0.4746414506       -1.3216436132       -1.2067034467
 N          1.1474681949       -0.6090455566       -2.0587589578
 C          1.8721314433        0.2707772869       -1.2921904911
 C          1.5919827541        0.0415406708        0.0778671291
 C          2.2482029691        0.8515632918        1.0175495190
 C          2.3366201522        1.0331675852        2.4257628064
 C          3.2131154588        2.0559090182        2.6447207721
 N          3.6825756682        2.5319183924        1.4592755325
 C          3.1209791604        1.8226800172        0.4462750235
 N          3.3820969842        2.0417890526       -0.8455812666
 C          2.7605865930        1.2667671036       -1.7067261608
 H         -0.5847186846       -3.2962838867        0.1514929582
 H         -1.2399367204       -3.1971965625        1.7753336076
 H         -2.7413121251       -2.5640935848       -0.4726153635
 H         -3.0841405589       -1.9631991888        1.1554158701
 H         -1.1716233336        1.1066465109        0.4092586380
 H         -2.5948667594        0.6952004461        1.3814512847
 H         -1.3780934775       -0.8184781073        2.7418091687
 H         -0.1183005268        0.3561640622        2.3537427832
 H         -0.2011525573       -2.0894983896       -1.5203747743
 H          1.8345312494        0.4861554110        3.1972660751
 H          3.5346013693        2.4775355711        3.5760339393
 H          2.9662419683        1.4321043953       -2.7533276977
 H          4.3423624515        3.2807308941        1.3326891411
 H          0.6126786034       -2.3476409315        3.1795479896
 H          1.3938982528       -3.1010720013        1.7859121978
 H          1.9070317822       -1.5073871838        2.3201902560
 H         -1.9068808790        1.9243686541       -1.7995249280
 H         -2.5901922353        1.1273863549       -3.2369862344
 H         -1.1315113499        0.4495888652       -2.4695225297
  42
        -67.90778997
 C          0.4606059945       -1.4360679612        2.0834197510
 C         -0.0287541485       -0.9059772444        0.7301387045
 C         -1.0456280475       -1.8944890567        0.1303789500
 C         -2.4475652282       -1.6002479512        0.6555782986
 N         -2.9235880484       -0.3071451790        0.1780718989
 C         -1.8606579160        0.6501227210       -0.1073022794
 C         -0.7143532145        0.4711144724        0.8783290568
 S         -4.0600833729       -0.4205942731       -1.0403103040
 O         -4.1528400481        0.8749288917       -1.6791110503
 O         -3.7648483713       -1.5293323776       -1.9365091207
 C         -5.5731046203       -0.7542517176       -0.1448659451
 N          1.1404366000       -0.7782340550       -0.1389847823
 C          1.4469301577       -1.5261063504       -1.2377402274
 N          2.5728281187       -1.2194613387       -1.8053014649
 C          3.0878525053       -0.2005783024       -1.0417760784
 C          2.2007632535        0.0827926979        0.0255704524
 C          2.5812501351        1.0750085579        0.9411753223
 C          2.1090361471        1.6909766355        2.1327439034
 C          3.0445791393        2.6122611935        2.5038979163
 N          4.0780583932        2.6143385009        1.6174867924
 C          3.8333432560        1.6899139117        0.6531168248
 N          4.6631143386        1.4368158223       -0.3636803761
 C          4.2896508659        0.4956867062       -1.2021757816
 H         -1.0966690575       -1.7955360697       -0.9550642941
 H         -0.7653369207       -2.9197315023        0.3696154294
 H         -3.1356023483       -2.3591781035        0.2842036149
 H         -2.4712958417       -1.5946839412        1.7473664330
 H         -1.5040852685        0.5383309321       -1.1403932258
 H         -2.2978893128        1.6460690928       -0.0213078437
 H         -1.1092430558        0.5743368038        1.8876567566
 H          0.0051165177        1.2680757061        0.7042091387
 H          0.8231998439       -2.3140163273       -1.6065676230
 H          1.1992173545        1.4904451190        2.6590859833
 H          3.0417170982        3.2710020737        3.3490509915
 H          4.9547712964        0.2775969076       -2.0240543167
 H          4.8986616791        3.1950148342        1.6551212955
 H          1.1671428319       -0.7463007516        2.5336662072
 H         -0.3767196937       -1.5774392178        2.7588868734
 H          0.9617662697       -2.3915155833        1.9434392817
 H         -6.3709081844       -0.8216431988       -0.8728538492
 H         -5.7225201895        0.0803946913        0.5249033614
 H         -5.4574215832       -1.6851561373        0.3915907673
  42
        -67.90772663
 C          0.8190456991       -2.0538022664       -2.2618067721
 C         -0.0972084057       -1.5188401991       -1.1520522269
 C         -0.9485075715       -0.3261542018       -1.6573184981
 C         -2.4439685585       -0.4774678241       -1.3572638346
 N         -2.7002185041       -0.9582376352       -0.0210344174
 C         -2.0833155171       -2.2265473238        0.3287815348
 C         -1.0321509163       -2.6501152438       -0.7003516286
 S         -2.9473352452        0.1327829716        1.1735902448
 O         -3.8554437194        1.1343700382        0.6525425537
 O         -3.4062414966       -0.6095725049        2.3293283086
 C         -1.4167235001        0.9694657544        1.6327875201
 N          0.7665453878       -1.0820104088       -0.0550329391
 C          0.9533113626       -1.6976560076        1.1489290305
 N          1.8036169909       -1.1081773258        1.9325786102
 C          2.2503864968       -0.0230454719        1.2196674051
 C          1.6196424804       -0.0020290922       -0.0485800277
 C          1.9958602868        1.0101475370       -0.9432528147
 C          1.7298725616        1.4349003299       -2.2730371364
 C          2.5028231416        2.5355798349       -2.5029475983
 N          3.2390563491        2.8308605852       -1.3963085112
 C          2.9631534657        1.9203050989       -0.4275580388
 N          3.5387261084        1.9171426015        0.7784175075
 C          3.1854457920        0.9475408516        1.5923171968
 H         -0.5835116736        0.5932423552       -1.2041541606
 H         -0.8398288560       -0.2323024899       -2.7367271814
 H         -2.9531388132        0.4825767102       -1.4385478161
 H         -2.9119302601       -1.1740050671       -2.0569182378
 H         -1.6697461726       -2.1223029990        1.3332817424
 H         -2.8669217509       -2.9907985863        0.3811961408
 H         -1.5448247428       -3.0086711239       -1.5923276987
 H         -0.4572985802       -3.4852738769       -0.3025623564
 H          0.4595752929       -2.6025694230        1.4347370155
 H          1.0630804222        0.9909619792       -2.9813645900
 H          2.5768300659        3.1318369190       -3.3902716031
 H          3.6534858572        0.9272528640        2.5646492629
 H          3.8946616731        3.5875388657       -1.2970141901
 H          1.3846119653       -2.9083830468       -1.8971204836
 H          0.2316585754       -2.3659904852       -3.1193544342
 H          1.5233418265       -1.2883787879       -2.5743167548
 H         -1.6673380558        1.5876015511        2.4839380254
 H         -1.0947617106        1.5791986939        0.8009298153
 H         -0.6819653555        0.2273633019        1.9122020861
  42
        -67.90747950
 C          0.6430016687       -1.7940069448        2.2265769942
 C         -0.0179150864       -1.3308200023        0.9234087094
 C         -0.9186745757       -2.4663183356        0.4104777365
 C         -1.9283890810       -1.9811195762       -0.6209999176
 N         -2.8543250995       -1.0213228578       -0.0227042064
 C         -2.3730912051       -0.3873192251        1.1950597184
 C         -0.8839421491       -0.0638455246        1.1223160502
 S         -3.5189540976        0.0516559754       -1.1152652426
 O         -2.8458824350        1.3415477264       -1.0783309410
 O         -3.5378232182       -0.5925882571       -2.4118340827
 C         -5.1977418273        0.2321279995       -0.5201920252
 N          1.0379915099       -1.0164773379       -0.0397781908
 C          1.2724501227       -1.6079817880       -1.2463011220
 N          2.2480170891       -1.0884003179       -1.9254806656
 C          2.7187755940       -0.0649828491       -1.1405232833
 C          1.9652722578       -0.0037626370        0.0579124618
 C          2.3179773266        0.9792520996        0.9949076263
 C          1.9375146067        1.4412545229        2.2842380257
 C          2.7627918060        2.4805125018        2.6001428116
 N          3.6431404124        2.7029384289        1.5865531909
 C          3.4056578001        1.8077917840        0.5931289028
 N          4.1111414408        1.7566897274       -0.5408189423
 C          3.7674693421        0.8219751787       -1.3988669640
 H         -0.3184083399       -3.2711166844       -0.0096110198
 H         -1.4628146182       -2.8788778351        1.2588323589
 H         -1.4242137711       -1.5163743363       -1.4766295238
 H         -2.5242598013       -2.8132660269       -1.0037883393
 H         -2.9303660033        0.5410891430        1.3109977968
 H         -2.5951927167       -1.0445047687        2.0380706753
 H         -0.5947184314        0.4632701863        2.0276006769
 H         -0.7376236891        0.6163536749        0.2788634790
 H          0.7108342185       -2.4390826716       -1.6186211616
 H          1.1612921158        1.0662841571        2.9175271485
 H          2.7802126930        3.0797076088        3.4883845281
 H          4.3310987975        0.7659573016       -2.3178845523
 H          4.3622291152        3.4059391968        1.5602453120
 H         -0.0975515880       -1.8548376553        3.0176576257
 H          1.0874114255       -2.7760837697        2.0841481639
 H          1.4280878670       -1.1087378906        2.5280111306
 H         -5.6198036405       -0.7623724631       -0.4902692540
 H         -5.7232346291        0.8605476037       -1.2271593712
 H         -5.1710061571        0.6889333739        0.4589785801
  42
        -67.90738105
 C          1.0594408935       -2.2775055133       -2.1234875140
 C          0.0138402170       -1.5791462754       -1.2483694509
 C         -0.6943121621       -0.4258079499       -1.9787135613
 C         -1.6213754688        0.3256630896       -1.0144780925
 N         -2.0421970051       -0.5516125763        0.0659903660
 C         -2.3610394511       -1.8952086351       -0.3777063196
 C         -1.0794267811       -2.5939556875       -0.8694697690
 S         -3.0952463204        0.1179619035        1.1601287432
 O         -2.8500453830        1.5442924219        1.1792332854
 O         -4.4655090591       -0.2712429861        0.8601238398
 C         -2.6100148756       -0.5887355500        2.7310174054
 N          0.6821945173       -1.0402400182       -0.0671501651
 C          0.4300994228       -1.3534723016        1.2333967595
 N          1.0710206730       -0.6305227683        2.1003566694
 C          1.8115431818        0.2478293851        1.3482583627
 C          1.5800951683       -0.0004066745       -0.0281237713
 C          2.2832770810        0.7840585913       -0.9547553747
 C          2.4482580597        0.9210763937       -2.3611337906
 C          3.3369398018        1.9362139450       -2.5644930459
 N          3.7440506712        2.4480025670       -1.3706598849
 C          3.1289621080        1.7688489351       -0.3676981198
 N          3.3315622206        2.0179946309        0.9293676711
 C          2.6790125167        1.2548722966        1.7786420880
 H          0.0188979317        0.2811441622       -2.3918823910
 H         -1.2722790489       -0.8511935803       -2.7980135373
 H         -1.1135333162        1.1698145558       -0.5428562119
 H         -2.4938268485        0.7227560011       -1.5507411191
 H         -2.8063837575       -2.4194216079        0.4657384284
 H         -3.1164787520       -1.8541150936       -1.1724637541
 H         -1.3151369287       -3.1678770913       -1.7647062569
 H         -0.7005196671       -3.2941057284       -0.1283141740
 H         -0.2293594377       -2.1408597264        1.5299022177
 H          1.9914842440        0.3465978155       -3.1409541161
 H          3.7094468755        2.3282873300       -3.4896936465
 H          2.8438284932        1.4395668192        2.8294542935
 H          4.3967459366        3.2009186306       -1.2324785827
 H          1.9429825625       -1.6588125469       -2.2383548808
 H          1.3604579617       -3.2132948849       -1.6591793082
 H          0.6480310400       -2.4897058184       -3.1052433680
 H         -2.8728732144       -1.6367249146        2.7384851471
 H         -3.1583932907       -0.0518163474        3.4937212713
 H         -1.5443219379       -0.4329724807        2.8362627912
  42
        -67.90737150
 C          0.1153274701       -0.2132960031       -2.1624938336
 C         -0.0881988977       -0.4648609351       -0.6653788520
 C         -0.7121006622        0.7446679886        0.0689554094
 C         -2.2339069055        0.6842562587        0.1126929680
 N         -2.7106795247       -0.4982659882        0.8319962852
 C         -1.7671501912       -1.6081775216        0.8311673482
 C         -1.0329065686       -1.6693745279       -0.5040975553
 S         -4.2480935512       -0.9304575295        0.3249009498
 O         -4.3586604637       -0.8801396545       -1.1270082015
 O         -4.5699146450       -2.2133045402        0.9134643738
 C         -5.2876301804        0.3337968110        1.0467662686
 N          1.2161967083       -0.7271223733       -0.0555884090
 C          1.6021620719       -1.8349855407        0.6415913923
 N          2.8146474071       -1.7915811746        1.0997774859
 C          3.2995749170       -0.5700917514        0.7031338127
 C          2.2988056757        0.1234393563       -0.0224463314
 C          2.6126162980        1.4094034083       -0.4893996015
 C          2.0195099798        2.4826638551       -1.2097005131
 C          2.9535459968        3.4732608571       -1.2994215117
 N          4.1020693891        3.0901641365       -0.6785783525
 C          3.9332457331        1.8415761859       -0.1718409806
 N          4.8803315957        1.1838524235        0.5033134691
 C          4.5604006259       -0.0142712546        0.9383470018
 H         -0.3344820464        0.7711398483        1.0923271093
 H         -0.4206529575        1.6730748798       -0.4153468351
 H         -2.6133213027        1.5621599275        0.6381699988
 H         -2.6423464676        0.6764048688       -0.9046937465
 H         -1.0742928953       -1.4738777058        1.6660483952
 H         -2.3516952659       -2.5119897161        1.0053403903
 H         -1.7892418026       -1.6258491897       -1.2914326091
 H         -0.4989724695       -2.6091276244       -0.6273848559
 H          0.9638115099       -2.6766572888        0.8125227173
 H          1.0332021122        2.5393987656       -1.6217072116
 H          2.8727338368        4.4328117678       -1.7697019546
 H          5.3143094761       -0.5554171081        1.4896020101
 H          4.9479189523        3.6283554392       -0.5956810168
 H          0.9204491427        0.4910133758       -2.3394956553
 H          0.3673411740       -1.1476455019       -2.6594767807
 H         -0.8008715759        0.1741933134       -2.5989554034
 H         -5.1506899809        1.2483848523        0.4875976658
 H         -4.9841580270        0.4333546558        2.0792142119
 H         -6.3095632565       -0.0151805566        0.9727573266
  42
        -67.90712549
 C          0.1798253328       -1.0400254624        2.0487891903
 C         -0.0017824113       -0.9628115469        0.5276267799
 C         -0.8304992324       -2.1696796406        0.0449204635
 C         -2.3221650664       -1.8889119840        0.1827589618
 N         -2.7001045333       -0.8542257920       -0.7674404778
 C         -1.6591702861        0.1108115536       -1.0763613949
 C         -0.7291621142        0.3382494701        0.1119230703
 S         -4.2329774089       -0.2791806970       -0.6309273064
 O         -4.4782084087        0.5793990891       -1.7717288254
 O         -5.1057175504       -1.4266865791       -0.4945572328
 C         -4.3680346164        0.7226786824        0.8624396410
 N          1.3323653883       -0.9891985876       -0.0708583292
 C          1.9003156366       -1.9982332381       -0.7931291140
 N          3.1211491976       -1.7736084019       -1.1700562443
 C          3.4264542099       -0.5345311989       -0.6631761354
 C          2.3104741330       -0.0290712141        0.0484579398
 C          2.4502386063        1.2181023575        0.6750324265
 C          1.7039929438        2.1125107648        1.4907292215
 C          2.5100477622        3.1819107172        1.7527894513
 N          3.7195689752        3.0155025812        1.1506262769
 C          3.7228447299        1.8298337501        0.4878967290
 N          4.7706307416        1.3629737958       -0.1980911702
 C          4.6194988198        0.1870466870       -0.7663327090
 H         -0.6389859733       -2.3709159810       -1.0074974786
 H         -0.5740032182       -3.0564567662        0.6230351805
 H         -2.9125929914       -2.7748744028       -0.0559982761
 H         -2.5631107219       -1.5899828226        1.2085256847
 H         -1.0896611147       -0.2509760320       -1.9384559950
 H         -2.1595119377        1.0311533128       -1.3776257887
 H         -1.3073425554        0.7082194929        0.9575589185
 H         -0.0028753052        1.0990527456       -0.1657461841
 H          1.3959545399       -2.9126243245       -1.0262405751
 H          0.7025768428        1.9955386661        1.8490912780
 H          2.2990073350        4.0571425843        2.3339908504
 H          5.4620722054       -0.2038870071       -1.3162750320
 H          4.4976660281        3.6522321912        1.1834532399
 H          0.7401108027       -0.1850969438        2.4138934977
 H         -0.7842661373       -1.0709592580        2.5461333972
 H          0.7315723063       -1.9414041196        2.3069729425
 H         -3.6884693756        1.5579298369        0.7693107665
 H         -4.1460601205        0.0961531079        1.7143544224
 H         -5.3929342647        1.0649716275        0.8998643158
  42
        -67.90702126
 C          0.6100504276       -3.1259741204        1.5332450387
 C         -0.2753727342       -2.0390823369        0.9056478724
 C         -1.4498721269       -2.6884951050        0.1312500113
 C         -2.7132401187       -1.8115210186        0.1400639322
 N         -2.3982284595       -0.4011940671        0.2140361131
 C         -1.7185085256       -0.0248500430        1.4410173853
 C         -0.8979901126       -1.1868150329        2.0102579108
 S         -1.9434232940        0.3087249229       -1.2174064657
 O         -0.9836267839        1.3627328229       -0.9613957189
 O         -1.5578358600       -0.6905422140       -2.1963775951
 C         -3.4800502032        1.0603647576       -1.7554135026
 N          0.5876576937       -1.2618723746        0.0012713618
 C          0.9743300937       -1.7934889036       -1.1979528323
 N          1.7810507700       -1.0612205213       -1.8934785970
 C          1.9815803031        0.0537586314       -1.1214318588
 C          1.2673104300       -0.0610794535        0.1029840860
 C          1.4630842673        0.9825161007        1.0317163268
 C          1.1050429348        1.3622453204        2.3587637674
 C          1.6896730276        2.5659176929        2.6195434529
 N          2.4024322309        2.9782808022        1.5389636424
 C          2.2958562622        2.0425080675        0.5607976787
 N          2.9200652970        2.1650847704       -0.6132472842
 C          2.7653284746        1.1606291067       -1.4447575926
 H         -1.1758931114       -2.8673998294       -0.9043919089
 H         -1.6783714947       -3.6485671421        0.5928633495
 H         -3.2772652774       -1.9721111028       -0.7772144675
 H         -3.3517709072       -2.0399364948        0.9953368324
 H         -1.0925519417        0.8325533471        1.1958453954
 H         -2.4740547761        0.2908970736        2.1672696551
 H         -1.5503552400       -1.8447490010        2.5852396718
 H         -0.1240562252       -0.8273841716        2.6789415070
 H          0.6622683702       -2.7597970477       -1.5379186611
 H          0.5011006920        0.8418257940        3.0700387107
 H          1.6444335010        3.1547208061        3.5135235067
 H          3.2695469244        1.2202361066       -2.3976153073
 H          2.9352552227        3.8271047494        1.4525107646
 H          1.4666809404       -2.6683586302        2.0237117596
 H          0.0484691841       -3.6928300979        2.2693628847
 H          0.9767139872       -3.8056470200        0.7682969416
 H         -3.7488203091        1.7962526858       -1.0112801910
 H         -4.2228718512        0.2793859804       -1.8340506002
 H         -3.2987177814        1.5228025620       -2.7163608783
  42
        -67.90697516
 C          0.4676600913       -1.0817567301       -2.2646093711
 C         -0.0168276669       -0.7929106409       -0.8389010981
 C         -0.6931784157        0.5951812060       -0.7443546746
 C         -1.8571820800        0.6030321677        0.2386903978
 N         -2.9046136735       -0.2852809614       -0.2375780933
 C         -2.4309081775       -1.4889615563       -0.9032071911
 C         -1.0363859999       -1.8681278161       -0.4128260594
 S         -4.1982669522       -0.4546751454        0.7632958055
 O         -4.6001116299        0.8755288995        1.1695493425
 O         -5.1930584548       -1.2329756617        0.0539612802
 C         -3.7073358459       -1.3789231007        2.2321506395
 N          1.1563362831       -0.8251378012        0.0346535634
 C          1.4681938362       -1.7642850246        0.9746285099
 N          2.6010116842       -1.5729117647        1.5769634644
 C          3.1181613659       -0.4363399953        1.0062909593
 C          2.2237326774        0.0428784287        0.0172651966
 C          2.6041904113        1.1838058905       -0.7044325824
 C          2.1261518146        2.0103157838       -1.7582319050
 C          3.0644145276        2.9797131317       -1.9625051543
 N          4.1053950523        2.8137001038       -1.1007612121
 C          3.8632061304        1.7284198237       -0.3208909874
 N          4.7008792187        1.2871861984        0.6223495742
 C          4.3276686374        0.2103396474        1.2776457973
 H          0.0287805049        1.3411271903       -0.4193807908
 H         -1.0691409449        0.8827585749       -1.7247288044
 H         -1.5043248593        0.3105494786        1.2355874233
 H         -2.2980241224        1.5977106063        0.3175923167
 H         -3.1576096947       -2.2764874113       -0.7041201516
 H         -2.4267418244       -1.3081006511       -1.9815670585
 H         -0.7544206046       -2.8367786437       -0.8232884617
 H         -1.0725870969       -1.9456024143        0.6727967575
 H          0.8468083383       -2.6064455621        1.1969855014
 H          1.2113627035        1.9143944820       -2.3053063171
 H          3.0580703346        3.7828449057       -2.6720165418
 H          5.0006035235       -0.1596961426        2.0362865605
 H          4.9291739423        3.3877163213       -1.0391718665
 H          0.9680661170       -2.0473658491       -2.2952717379
 H         -0.3714330563       -1.1026785416       -2.9525397558
 H          1.1730398740       -0.3246934790       -2.5921295076
 H         -2.9513564664       -0.8101626823        2.7546079887
 H         -3.3545836920       -2.3516500032        1.9194836513
 H         -4.5986521700       -1.4712894951        2.8371075167
  42
        -67.90677177
 C          0.1448016686       -0.7108472410       -2.0631628862
 C         -0.0069265722       -0.9145383224       -0.5507143627
 C         -0.7343411333        0.2784729083        0.1108045857
 C         -1.7455432479       -0.1705036595        1.1615601485
 N         -2.7814268113       -1.0081949569        0.5797476881
 C         -2.3079792907       -1.9538046264       -0.4279076084
 C         -0.8116524493       -2.1975199172       -0.2764949416
 S         -4.1721446092       -0.1817026243        0.1743135559
 O         -3.8909630371        1.2068574695       -0.1562556382
 O         -4.8554454259       -0.9312984650       -0.8597952214
 C         -5.1220121750       -0.2507087896        1.6888887401
 N          1.3391731533       -1.0373694753        0.0087940585
 C          1.9268412856       -2.1582780477        0.5202464297
 N          3.1562846028       -1.9985550356        0.9015642292
 C          3.4466600223       -0.6858885863        0.6227746792
 C          2.3113272792       -0.0652737105        0.0451931305
 C          2.4292767907        1.2784615912       -0.3378066580
 C          1.6546551231        2.3039101041       -0.9458781422
 C          2.4492210762        3.4105460054       -1.0245454801
 N          3.6781801470        3.1436445874       -0.5021372149
 C          3.7052039660        1.8543380572       -0.0755864207
 N          4.7731408757        1.2749194773        0.4808259046
 C          4.6403772081        0.0129949477        0.8254393980
 H         -0.0142486433        0.9469200604        0.5792533536
 H         -1.2833785715        0.8420020644       -0.6458640827
 H         -1.2599788893       -0.7211093418        1.9704876463
 H         -2.2406651336        0.7062750023        1.5773246564
 H         -2.8586058284       -2.8864587756       -0.2850264541
 H         -2.5487299611       -1.5819966291       -1.4289770203
 H         -0.5132895549       -2.9818590657       -0.9713649855
 H         -0.6358502242       -2.5446542341        0.7405176669
 H          1.4278500781       -3.1015554026        0.5960380217
 H          0.6405262620        2.2463659024       -1.2841356430
 H          2.2163961736        4.3781390207       -1.4222036348
 H          5.4989245181       -0.4658894456        1.2710922957
 H          4.4526028323        3.7825260435       -0.4379212029
 H          0.7225709051        0.1842571029       -2.2731011171
 H          0.6617995570       -1.5617315543       -2.5022472899
 H         -0.8303073808       -0.6146206287       -2.5318231902
 H         -6.0387424570        0.3006411467        1.5276890702
 H         -4.5320837987        0.1969855412        2.4758332464
 H         -5.3202216443       -1.2950411477        1.8816527226
  42
        -67.90672026
 C          0.1116833307       -2.5832745241        1.5369607894
 C         -0.0359582064       -1.4808306248        0.4838516689
 C         -0.8976141609       -1.9302611077       -0.7146346763
 C         -2.3711776951       -2.1006200085       -0.3350874525
 N         -2.9256023324       -0.9378603098        0.3163385081
 C         -2.1571092554       -0.4427241026        1.4335626446
 C         -0.6792872826       -0.2350189437        1.0913435508
 S         -3.7915821950        0.1325686989       -0.5774549033
 O         -4.6516868466       -0.6435472116       -1.4476548526
 O         -4.4581831807        1.0176435289        0.3562916379
 C         -2.7181709395        1.1399116382       -1.6176128199
 N          1.3095965878       -1.1724590142       -0.0260547698
 C          2.0042838615       -2.1356728577       -0.7048848968
 N          3.1793997856       -1.7806667359       -1.1108877891
 C          3.3158464108       -0.4862042629       -0.6817790976
 C          2.1455067673       -0.0725932963        0.0158339532
 C          2.1564234196        1.2420987201        0.5281191726
 C          1.3411129746        2.1449478870        1.2711418254
 C          2.0342849428        3.3116722762        1.4067545226
 N          3.2425540002        3.2090751604        0.7941976792
 C          3.3558495148        1.9695489170        0.2531311736
 N          4.4456626732        1.5741489161       -0.4093293633
 C          4.4202143808        0.3462046690       -0.8722902121
 H         -0.7991798243       -1.1837687309       -1.5046015312
 H         -0.5451506629       -2.8821826921       -1.1082240682
 H         -2.9809357089       -2.2811584062       -1.2203546200
 H         -2.4876174354       -2.9519589048        0.3409424756
 H         -2.6194275718        0.4973040690        1.7351764101
 H         -2.2628856746       -1.1534733470        2.2572819566
 H         -0.1517972626        0.0258295293        2.0071599330
 H         -0.5878959389        0.5774732911        0.3721320349
 H          1.6074492017       -3.1131385437       -0.8875307296
 H          0.3661930868        1.9929294098        1.6793096174
 H          1.7378885121        4.2130099806        1.9049392071
 H          5.2899393589       -0.0019792416       -1.4081615836
 H          3.9558959605        3.9164833192        0.7429767255
 H          0.5253746196       -3.4878788073        1.1010147517
 H          0.7795093689       -2.2485411782        2.3275115058
 H         -0.8502694330       -2.8234283686        1.9756086409
 H         -3.3772220534        1.7960354644       -2.1699741560
 H         -2.1825688736        0.4858243900       -2.2903229998
 H         -2.0601054197        1.7119576072       -0.9793898595
  42
        -67.90657761
 C          0.6872173206       -3.3155800358       -1.6875120988
 C         -0.1901643547       -2.2709944418       -0.9883452307
 C         -0.9048537847       -1.4162337994       -2.0323948145
 C         -1.9710057118       -0.5006490532       -1.3951526898
 N         -1.9789055459       -0.5897239807        0.0455785171
 C         -2.0594665487       -1.8967597613        0.6608695769
 C         -1.3089706613       -2.9446946997       -0.1714078633
 S         -1.7399678385        0.7114681635        1.0046747389
 O         -0.8979424557        0.3491492627        2.1278129854
 O         -1.2975602187        1.8230204881        0.1921278592
 C         -3.3760903012        1.0953890893        1.6413383795
 N          0.6710259214       -1.4871683979       -0.0948033217
 C          1.1164063190       -2.0571954151        1.0641577598
 N          1.8612097338       -1.2993740594        1.8016485974
 C          1.9306614865       -0.1170517020        1.1127723730
 C          1.2028071953       -0.2126032836       -0.1074659601
 C          1.2417913503        0.9196672448       -0.9460571625
 C          0.7994392615        1.3662285524       -2.2248061879
 C          1.2144421650        2.6545989941       -2.3830730481
 N          1.9067666770        3.0562816175       -1.2858712768
 C          1.9463142422        2.0327160022       -0.3950561370
 N          2.5859928369        2.1304147072        0.7730030596
 C          2.5836533980        1.0464982978        1.5152537081
 H         -0.1660909569       -0.8530271078       -2.5882182121
 H         -1.3887888348       -2.0973134293       -2.7318551643
 H         -1.7756392944        0.5480009962       -1.6189837615
 H         -2.9663391449       -0.7647918185       -1.7675000337
 H         -1.6101006917       -1.7876135765        1.6506494161
 H         -3.1087133756       -2.1914729745        0.7783934626
 H         -1.9915888091       -3.4068412404       -0.8838142520
 H         -0.9293918184       -3.7290973419        0.4792922159
 H          0.8814725556       -3.0650724747        1.3396544080
 H          0.2476423155        0.8421777486       -2.9756209759
 H          1.0641762240        3.3114399822       -3.2163166928
 H          3.1034720893        1.0906321743        2.4605738709
 H          2.3135217084        3.9618103143       -1.1246342111
 H          1.4232247743       -2.8217350902       -2.3174743432
 H          1.2150431361       -3.9222615556       -0.9566370996
 H          0.0763065871       -3.9663199633       -2.3051980246
 H         -4.0106250362        1.3107410928        0.7934356100
 H         -3.2768680141        1.9601076313        2.2830689761
 H         -3.7226899436        0.2380831799        2.2007093670
  42
        -67.90650651
 C          1.0537431712       -2.1181062301        2.2014122572
 C          0.0143796792       -1.4847104752        1.2704367018
 C         -1.0369644136       -2.5510505718        0.9131694650
 C         -2.3697277559       -1.9238267848        0.4709397279
 N         -2.1378095210       -0.6018589713       -0.0760138784
 C         -1.6464659045        0.3675180368        0.8901553045
 C         -0.7392010593       -0.3128616248        1.9212071533
 S         -3.2138983170       -0.0202469219       -1.1969002624
 O         -4.2922998910       -0.9768196688       -1.3677401377
 O         -3.6194317932        1.3203392036       -0.8177195944
 C         -2.2768631556        0.0583400495       -2.7205551217
 N          0.7019169516       -0.9785598256        0.0858992122
 C          0.4709060668       -1.3141927994       -1.2131942144
 N          1.1636102558       -0.6379496156       -2.0781508340
 C          1.9167643286        0.2306777075       -1.3278246487
 C          1.6341070107        0.0319329640        0.0469668146
 C          2.3182722739        0.8363779359        0.9714471632
 C          2.4176994087        1.0370094056        2.3764080804
 C          3.3247861757        2.0365269114        2.5764639425
 N          3.8046783861        2.4790771990        1.3822692259
 C          3.2174096967        1.7718380978        0.3823359128
 N          3.4806345699        1.9628487294       -0.9135681411
 C          2.8337356895        1.1926148145       -1.7602515231
 H         -0.6447594937       -3.2251069199        0.1548718768
 H         -1.2202585059       -3.1448834473        1.8078096834
 H         -2.8543781306       -2.5084810839       -0.3093842369
 H         -3.0664366733       -1.8627848035        1.3165500979
 H         -1.0986669990        1.1263559444        0.3254314600
 H         -2.4841789526        0.8727584394        1.3863959485
 H         -1.3333581327       -0.7049763846        2.7452326720
 H         -0.0520004656        0.4309286045        2.3148080724
 H         -0.2254878943       -2.0693479374       -1.5097326450
 H          1.9019104268        0.5180853246        3.1582412035
 H          3.6621037841        2.4626881002        3.5000819678
 H          3.0415708719        1.3348830832       -2.8099009786
 H          4.4829124352        3.2086249132        1.2415512271
 H          0.6255883835       -2.2819350657        3.1853536003
 H          1.3733350951       -3.0743741901        1.7943770206
 H          1.9288032754       -1.4853900400        2.2991217613
 H         -2.8309777286        0.6841012785       -3.4070175242
 H         -2.1843389484       -0.9489852398       -3.1001553644
 H         -1.3071977682        0.4830552806       -2.5012027687
  42
        -67.90644183
 C          0.7070464666       -1.6609997505       -2.3582465489
 C         -0.0102880734       -1.2663628428       -1.0621964844
 C         -0.8667608503        0.0141962616       -1.2381411246
 C         -2.3637760790       -0.2868985950       -1.2769557385
 N         -2.8256438695       -0.9903700151       -0.0961944228
 C         -1.9361137301       -2.0204061110        0.4228653063
 C         -0.9251185618       -2.4283021634       -0.6422238187
 S         -3.5996273980       -0.0952997744        1.0437718104
 O         -4.6177608098        0.6822106975        0.3674108079
 O         -4.0690568415       -1.0188542075        2.0548691618
 C         -2.4454292028        1.0582928287        1.8148482480
 N          1.0072604923       -1.0069562599       -0.0416598295
 C          1.2317381535       -1.7025325606        1.1115244975
 N          2.1897338392       -1.2334119131        1.8495335688
 C          2.6666085272       -0.1448838878        1.1624231365
 C          1.9344897866        0.0111845164       -0.0407987615
 C          2.2988983237        1.0685183106       -0.8878637448
 C          1.9411840500        1.6285819262       -2.1440594601
 C          2.7673345001        2.6925590969       -2.3603338054
 N          3.6253466912        2.8386748028       -1.3139923357
 C          3.3745388967        1.8663523494       -0.3998632226
 N          4.0573977145        1.7269664715        0.7403089282
 C          3.7040112071        0.7242253104        1.5129433254
 H         -0.6541395466        0.7005060201       -0.4180946861
 H         -0.6070104556        0.5168153382       -2.1663519826
 H         -2.9480334275        0.6315164410       -1.3318592683
 H         -2.6079310484       -0.8910402909       -2.1546027363
 H         -1.4297686715       -1.6555758445        1.3232418625
 H         -2.5547519652       -2.8713685420        0.7186846627
 H         -1.4686550987       -2.7665343965       -1.5229059893
 H         -0.3341453132       -3.2707688439       -0.2878423398
 H          0.6759356304       -2.5702973660        1.3991176030
 H          1.1816010387        1.2993065006       -2.8210822933
 H          2.7996086155        3.3593960504       -3.1986003230
 H          4.2515355157        0.5964776864        2.4344252443
 H          4.3424252125        3.5379041293       -1.2197376514
 H          1.4760645021       -0.9376034039       -2.6097223246
 H          1.1812441012       -2.6323270562       -2.2384556934
 H         -0.0055492364       -1.7187515971       -3.1750843750
 H         -1.5640333754        0.5167739085        2.1294170522
 H         -2.9630189713        1.4670116432        2.6717832369
 H         -2.2201409074        1.8338779754        1.0965337771
  42
        -67.90629236
 C          0.6669814792       -3.0447748161        1.7995563888
 C          0.0181350999       -1.9817146421        0.9050160902
 C         -1.0757358720       -2.6047805580        0.0171411381
 C         -1.7701511987       -1.5369081528       -0.8221683899
 N         -2.3841216994       -0.5494656678        0.0517625109
 C         -1.4059405372        0.0995263580        0.9133740099
 C         -0.6978383303       -0.9451944766        1.7684853796
 S         -3.2747425865        0.5721427707       -0.8201799977
 O         -3.6508760962        1.6326688138        0.0902405336
 O         -2.5361112249        1.0064835921       -1.9963707365
 C         -4.7442973674       -0.3275741371       -1.3111968415
 N          1.0755124991       -1.4022743224        0.0663897341
 C          1.6027197244       -2.1494032810       -0.9507126033
 N          2.5630253264       -1.5858664515       -1.6084244648
 C          2.7266785863       -0.3686259183       -1.0013201550
 C          1.8050838846       -0.2276354623        0.0751941949
 C          1.8897335443        0.9747429125        0.8095025460
 C          1.2888159144        1.6324528749        1.9216748400
 C          1.9115745562        2.8352756083        2.0782222914
 N          2.8767695437        2.9851292819        1.1338178625
 C          2.8933796477        1.8802201666        0.3455844732
 N          3.7439467406        1.7421558123       -0.6742839243
 C          3.6550330843        0.6159733233       -1.3428463606
 H         -0.6842412805       -3.3764367702       -0.6409024750
 H         -1.8127229866       -3.0630427173        0.6752240035
 H         -1.0599206539       -1.0485252533       -1.5059130378
 H         -2.5625109735       -1.9847804425       -1.4195947568
 H         -0.6909724764        0.6674029436        0.3023037638
 H         -1.9588013168        0.8086664728        1.5304063875
 H         -1.4471240511       -1.4656790248        2.3640277908
 H          0.0070093824       -0.4795894835        2.4485794155
 H          1.2603776151       -3.1360493699       -1.1844825937
 H          0.4836789221        1.3063026190        2.5430267571
 H          1.7248651319        3.5963460932        2.8090390024
 H          4.3325772615        0.4744345701       -2.1709409461
 H          3.4890898742        3.7742584574        1.0138127362
 H          1.4268804970       -2.5870763389        2.4286506793
 H         -0.0808890881       -3.5061030787        2.4362910176
 H          1.1391340661       -3.8167302695        1.1981436242
 H         -5.0051194319       -0.9752529044       -0.4859089391
 H         -4.5308662550       -0.8764264764       -2.2176117957
 H         -5.5160003388        0.4119219565       -1.4816569331
  42
        -67.90623661
 C          1.0033383328       -2.1773676111       -2.1848842084
 C         -0.0484543626       -1.5773394526       -1.2419746894
 C         -0.8449220142       -0.4504944848       -1.9344118354
 C         -2.2000607906       -0.1959379981       -1.2503071574
 N         -2.1697487508       -0.7576796322        0.0802908828
 C         -2.1762430171       -2.2021938320        0.0632366167
 C         -1.0189867984       -2.6959287396       -0.8262916946
 S         -2.9079905384        0.0687568820        1.2969738510
 O         -4.0547273149        0.8076395205        0.7933949475
 O         -3.1839922883       -0.8651009947        2.3682942694
 C         -1.6606451396        1.2392515865        1.8268355084
 N          0.6585985259       -1.0264055156       -0.0884987340
 C          0.6089876386       -1.4677516695        1.1989449486
 N          1.3316381876       -0.7844671270        2.0339821021
 C          1.9295148313        0.1883309547        1.2708282809
 C          1.5252047577        0.0418118109       -0.0794012967
 C          2.0802992779        0.9244891409       -1.0195807568
 C          2.0580997218        1.1770415709       -2.4197614879
 C          2.8890833268        2.2349069714       -2.6494592224
 N          3.4331339787        2.6659358800       -1.4786744912
 C          2.9705600909        1.8892141906       -0.4652705658
 N          3.3328958397        2.0422800819        0.8117277371
 C          2.8169085230        1.1917797081        1.6708258177
 H         -0.2565102176        0.4619860110       -1.9136781992
 H         -1.0129437508       -0.7251684182       -2.9740636043
 H         -2.4132260208        0.8676204113       -1.1562933942
 H         -3.0206275136       -0.6495324458       -1.8206590441
 H         -2.0915540186       -2.5290493123        1.0991746856
 H         -3.1363020073       -2.5739598800       -0.3218049355
 H         -1.4294817165       -3.1035144961       -1.7493518365
 H         -0.4735265007       -3.4966595513       -0.3291334498
 H          0.0325061798       -2.3114862837        1.5124602099
 H          1.5133359991        0.6517521616       -3.1770890942
 H          3.1295852875        2.7109454411       -3.5789296548
 H          3.1113314246        1.2972374936        2.7038728918
 H          4.0832829439        3.4248923038       -1.3631215717
 H          1.5145200942       -2.9992307783       -1.6888857212
 H          0.5335913320       -2.5556725032       -3.0870710760
 H          1.7449477007       -1.4343051417       -2.4580108657
 H         -2.0992652635        1.8489538240        2.6050422120
 H         -1.3808179258        1.8427035830        0.9749195755
 H         -0.8241345335        0.6682914585        2.2072403712
  42
        -67.90620916
 C          1.0226436579       -2.1801017965        2.1738891831
 C         -0.0402030556       -1.5744251181        1.2473597300
 C         -1.0131277001       -2.6916079630        0.8349803475
 C         -2.1985606317       -2.1822388873       -0.0073380715
 N         -2.1372475498       -0.7397591134       -0.0851665713
 C         -2.1468983815       -0.1237509859        1.2222693286
 C         -0.8337611752       -0.4579471193        1.9557194440
 S         -2.9264717110        0.0477791325       -1.3012837663
 O         -3.2132085976       -0.9151609670       -2.3435728537
 O         -4.0760301859        0.7732966524       -0.7834903629
 C         -1.7166865216        1.2271907687       -1.8927023121
 N          0.6509155186       -1.0118800728        0.0902772138
 C          0.5631165035       -1.4256046306       -1.2041638041
 N          1.2747604687       -0.7348404049       -2.0425508537
 C          1.9023718796        0.2155038068       -1.2749541012
 C          1.5266259167        0.0486919943        0.0811976268
 C          2.1072585453        0.9126662405        1.0234328671
 C          2.1121649832        1.1471982732        2.4269962368
 C          2.9548131386        2.1960015363        2.6555706229
 N          3.4813275485        2.6381572275        1.4811135112
 C          2.9945698950        1.8784661766        0.4660079673
 N          3.3340350977        2.0474392910       -0.8153152443
 C          2.7919155998        1.2160464145       -1.6770569887
 H         -0.4746508852       -3.4741364128        0.3024560011
 H         -1.3933497300       -3.1266681251        1.7583279583
 H         -2.1829578453       -2.5523583801       -1.0321616258
 H         -3.1505935736       -2.4965609031        0.4428988346
 H         -2.2671766918        0.9486966866        1.0788553879
 H         -3.0164074441       -0.4794726132        1.7901681037
 H         -1.0587315696       -0.7819940641        2.9700041484
 H         -0.2181099160        0.4346188884        2.0120290334
 H         -0.0374817300       -2.2513744155       -1.5206415088
 H          1.5779704021        0.6167912166        3.1884121851
 H          3.2148609064        2.6580981858        3.5868064726
 H          3.0658006528        1.3353020035       -2.7142738035
 H          4.1350861096        3.3937929790        1.3641019406
 H          0.5662770212       -2.5472678364        3.0874880061
 H          1.5140504912       -3.0110339992        1.6730367799
 H          1.7785548041       -1.4449796039        2.4279629112
 H         -0.8695077094        0.6620213668       -2.2582737777
 H         -1.4431702435        1.8753184209       -1.0722421003
 H         -2.1808031444        1.7898502045       -2.6912513507
  42
        -67.90618197
 C          0.9585769159       -2.1555531321       -2.2035802703
 C         -0.0707027071       -1.5735548910       -1.2244000114
 C         -0.8823789583       -0.4327504451       -1.8824697804
 C         -2.2986900391       -0.3181218320       -1.2975707683
 N         -2.2874109962       -0.8088742609        0.0578995275
 C         -2.1493591204       -2.2415211301        0.1495344310
 C         -1.0273836256       -2.7010630659       -0.8001287304
 S         -2.8738353122        0.1027729924        1.2800290322
 O         -3.9795904364        0.9163924218        0.8035999189
 O         -3.1625409050       -0.7758462805        2.3942565900
 C         -1.5257645845        1.2004068208        1.7201580237
 N          0.6694330132       -1.0450759793       -0.0805703660
 C          0.6984652004       -1.5429209556        1.1873403626
 N          1.4562233779       -0.8844222149        2.0109917407
 C          2.0005022122        0.1276544540        1.2591973344
 C          1.5272598699        0.0306381522       -0.0727668865
 C          2.0267610943        0.9532969989       -1.0051285727
 C          1.9336240021        1.2540279454       -2.3923844055
 C          2.7437488885        2.3274103119       -2.6242720016
 N          3.3411018520        2.7224989851       -1.4666050781
 C          2.9357085274        1.9057524932       -0.4602740972
 N          3.3606101119        2.0141041998        0.8019795358
 C          2.8977213577        1.1251578460        1.6523151005
 H         -0.3570446975        0.5058874237       -1.7300908538
 H         -0.9537422002       -0.6143924409       -2.9533278812
 H         -2.6456591485        0.7138147192       -1.2729877850
 H         -3.0161039600       -0.9014719316       -1.8863411053
 H         -1.9535347660       -2.4713546278        1.1962826922
 H         -3.0933106608       -2.7338086226       -0.1231985735
 H         -1.4762213936       -3.0783927544       -1.7184307349
 H         -0.4674457080       -3.5195190633       -0.3501468799
 H          0.1577642691       -2.4125936882        1.4937428061
 H          1.3557461944        0.7485328754       -3.1381274597
 H          2.9348585487        2.8383319411       -3.5466518788
 H          3.2441583051        1.1929772519        2.6723143326
 H          3.9898931119        3.4834162772       -1.3564689220
 H          1.5044437364       -2.9662628868       -1.7263264263
 H          0.4639211093       -2.5444558280       -3.0877710978
 H          1.6738587676       -1.3966095342       -2.5036135735
 H         -1.2166596256        1.7256109119        0.8273474900
 H         -0.7288020584        0.5936601075        2.1281956599
 H         -1.9027835527        1.8905931884        2.4623629216
