  42
        -67.91566786
 C         -0.1901554835       -3.4183686148        0.0014858743
 C          0.0004625190       -1.9006339755        0.0007373809
 C         -0.6356203685       -1.2922053843       -1.2615999334
 C         -2.1635003972       -1.3668402608       -1.2210981320
 N         -2.7128151244       -0.8183163197        0.0001766273
 C         -2.1635332712       -1.3656122230        1.2220288212
 C         -0.6356038703       -1.2912362154        1.2626072653
 S         -3.1759178950        0.7732494038       -0.0006446852
 O         -2.7521279042        1.4161800868        1.2291195584
 O         -2.7523491414        1.4147461077       -1.2312277791
 C         -4.9628794416        0.6567954974       -0.0003191928
 N          1.4314205876       -1.5848181342        0.0004059838
 C          2.4518436887       -2.4927547292       -0.0003526416
 N          3.6402778396       -1.9754591937       -0.0010604695
 C          3.4340904336       -0.6193394932       -0.0008165287
 C          2.0406808082       -0.3496188645        0.0000139957
 C          1.6483574451        0.9990343009        0.0003388723
 C          0.4646212590        1.7887520355        0.0008208874
 C          0.8543449013        3.0964125611        0.0011661786
 N          2.2126458683        3.1820050756        0.0007581561
 C          2.7312800120        1.9266614518        0.0001329992
 N          4.0421625492        1.6711648021       -0.0005820003
 C          4.3866823226        0.4026161043       -0.0010995586
 H         -0.3431462828       -0.2461787756       -1.3510317695
 H         -0.2715959159       -1.8190000432       -2.1448710919
 H         -2.5741339198       -0.7816590481       -2.0430878786
 H         -2.5077985583       -2.3996650842       -1.3105252359
 H         -2.5741034170       -0.7795216454        2.0434035569
 H         -2.5080070856       -2.3982872450        1.3125155494
 H         -0.2717728936       -1.8175504407        2.1462481112
 H         -0.3428809420       -0.2452509820        1.3514432501
 H          2.2979547099       -3.5506905659       -0.0003037894
 H         -0.5588761072        1.4699851677        0.0008470947
 H          0.2387042320        3.9734621486        0.0016193463
 H          5.4428556766        0.1806950224       -0.0015692269
 H          2.7615250147        4.0252495512        0.0009235022
 H          0.2523224447       -3.8626260987       -0.8860219046
 H          0.2533694018       -3.8617966897        0.8888931798
 H         -1.2488546057       -3.6510541501        0.0022104541
 H         -5.3587034498        1.6633865036        0.0013050438
 H         -5.2507768595        0.1227634430        0.8938147207
 H         -5.2513498706        0.1254391003       -0.8958629880
