48
Energy -59.548275561553645 kcal/mol Converged!
  C  -17.519990917  35.811216981   1.001619522
  C  -17.661379235  36.030842830  -0.496760642
  C  -19.110347656  36.136607530  -0.960182509
  C  -16.766064574  37.128162278  -1.048081318
  O  -17.284479228  34.731933116  -1.177311813
  C  -16.032127111  34.214282021  -1.080107949
  O  -15.107089228  34.704738158  -0.442692306
  N  -15.943126695  33.085608578  -1.898612649
  C  -14.830414462  32.117001476  -1.673958949
  C  -14.539367372  31.371814035  -2.999781287
  C  -14.471020963  29.874809474  -2.669626521
  C  -15.233909913  29.696973325  -1.335208781
  C  -15.194127765  31.055884763  -0.605437047
  N  -14.626367439  28.611647760  -0.525544626
  C  -13.352444305  28.633097977   0.102822075
  N  -13.065959797  27.460293901   0.698166288
  C  -14.162495618  26.618826717   0.446296410
  C  -15.143229748  27.327069914  -0.332192948
  C  -16.319349764  26.653867680  -0.722926729
  C  -17.499826001  26.922437001  -1.476442703
  C  -18.265705910  25.760073608  -1.481614196
  N  -17.609873940  24.757046214  -0.752154341
  C  -16.407753805  25.283417289  -0.276762625
  N  -15.472452763  24.590924813   0.484833435
  C  -14.373897307  25.261146299   0.834742761
  H  -16.824704211  32.683789588  -2.249214331
  H  -13.930415978  32.700510374  -1.344409484
  H  -15.346100883  31.558997583  -3.749318309
  H  -13.576244745  31.725496719  -3.435928328
  H  -13.408387439  29.550811563  -2.564849646
  H  -14.942657998  29.264381839  -3.472890913
  H  -16.302317224  29.413248751  -1.535508186
  H  -14.433696168  31.070638565   0.209566387
  H  -16.182140957  31.266215667  -0.132617036
  H  -12.706413381  29.508008394   0.087365282
  H  -17.755344930  27.845888257  -1.960333951
  H  -19.223451923  25.578981478  -1.951927928
  H  -13.619566638  24.736784724   1.438811802
  H  -17.940666970  23.810792692  -0.602213106
  H  -19.160219799  36.308705815  -2.059406474
  H  -19.608130603  36.986970603  -0.439489724
  H  -19.659791880  35.196455993  -0.722487442
  H  -16.450099548  35.645402305   1.271458890
  H  -18.109521255  34.921614908   1.321032632
  H  -17.892620190  36.705006068   1.552986478
  H  -15.705788762  36.954204799  -0.747132439
  H  -16.820392907  37.155892253  -2.160054565
  H  -17.094024095  38.116077328  -0.649720160
