48
Energy -57.11029273583764 kcal/mol Converged!
  C  -18.267050020  36.813087644  -1.799558118
  C  -17.367380609  36.608880938  -3.010815722
  C  -18.119800967  36.590876729  -4.338970147
  C  -16.147186583  37.513915567  -3.030304454
  O  -16.938698761  35.158907877  -2.954573700
  C  -16.009420349  34.694407008  -2.078763470
  O  -15.220706272  35.389632762  -1.446770615
  N  -16.120153281  33.310583537  -1.966777298
  C  -14.900297764  32.506513130  -1.639976799
  C  -14.496348313  31.607872315  -2.832138178
  C  -14.978351989  30.183713552  -2.520946622
  C  -15.429966909  30.161218661  -1.039192173
  C  -15.209064902  31.569394034  -0.450402572
  N  -14.698103593  29.102841412  -0.290118204
  C  -13.405674136  29.168192055   0.291829372
  N  -13.009875029  27.975506484   0.778865785
  C  -14.045909499  27.073429448   0.488675691
  C  -15.102047917  27.766465120  -0.197491463
  C  -16.233734671  27.041408342  -0.620872743
  C  -17.446815350  27.287548392  -1.327782472
  C  -18.122961295  26.075259142  -1.425849928
  N  -17.378695523  25.063900549  -0.800092586
  C  -16.207539644  25.634396438  -0.297897587
  N  -15.200048776  24.955589783   0.378915831
  C  -14.143495705  25.674910913   0.759691854
  H  -16.836712750  32.838154368  -2.534386523
  H  -14.073444447  33.216135526  -1.372847981
  H  -14.945004460  31.966876784  -3.787651905
  H  -13.386654968  31.626440061  -2.946053672
  H  -14.161247220  29.448669492  -2.706850502
  H  -15.841304783  29.908686659  -3.172699751
  H  -16.521510242  29.901604566  -0.970324522
  H  -14.357440202  31.601747594   0.267386942
  H  -16.123595179  31.903731951   0.098134817
  H  -12.819429026  30.083475894   0.336340102
  H  -17.778137835  28.231411938  -1.719458107
  H  -19.073860905  25.864355735  -1.898057316
  H  -13.332148477  25.157716362   1.293903148
  H  -17.639158728  24.087249796  -0.726084892
  H  -18.615144083  35.601174876  -4.483257595
  H  -17.424736394  36.761760826  -5.192483375
  H  -18.898608131  37.387874352  -4.345413110
  H  -17.709266531  36.604349535  -0.858629484
  H  -19.144682603  36.127807171  -1.852445007
  H  -18.633745296  37.865714044  -1.771317555
  H  -15.634165917  37.504938680  -2.038736272
  H  -15.421319086  37.170720797  -3.802710168
  H  -16.461354883  38.556951161  -3.267040953
