48
 energy: -73.172727100157 gnorm: 0.000042693986 xtb: 6.7.1 (edcfbbe)
C            6.53064321654569       -0.43088512876907        1.40405687932311
C            6.28708493208409        0.31494008157975        0.09294671906447
C            7.04370033805116        1.64328456558594        0.07999714861241
C            6.67907062450575       -0.54011077052129       -1.11119015073171
O            4.88894713765184        0.71261773530501       -0.00755527836685
C            3.89806597106250       -0.18959826170022       -0.02604875866000
O            4.02848888560282       -1.40126700428458        0.03732965287065
N            2.71364355342742        0.43879454087936       -0.12358833315150
C            1.44700674497033       -0.25599861559369       -0.19013822975098
C            0.65233382817365        0.12771596525036       -1.45374314933221
C           -0.41062039054458        1.11261795167089       -0.97251402977760
C           -0.79701782640747        0.56925822921819        0.40897845997169
C            0.53963384382041        0.11868374359464        1.00326191418225
N           -1.74450838328945       -0.51681023660200        0.28203636225386
C           -1.51330608593737       -1.85529109690518        0.17593114883451
N           -2.58515330776772       -2.57332413495329        0.01671406019942
C           -3.62200659313581       -1.66895201468559       -0.00063326898119
C           -3.09704963110123       -0.36531932111106        0.15682398207042
C           -3.97633960428846        0.71876365124244        0.15366619665020
C           -3.93785421865206        2.13342646022335        0.24952910144823
C           -5.22935850257401        2.56639508727083        0.16194198621504
N           -6.07332726065571        1.50520698036481        0.01585444222847
C           -5.34344753451379        0.35902544283711        0.00227347042340
N           -5.85407834538122       -0.86929716445936       -0.13810406304170
C           -4.99915628551822       -1.87059932596071       -0.14150467244847
H            2.72302573680001        1.44609828180805       -0.17875664454782
H            1.70800332741465       -1.31764200316494       -0.18846089940245
H            1.30242271714154        0.55096829043456       -2.21585774803914
H            0.17604374258577       -0.75993415624217       -1.86993244685642
H           -1.26678433590184        1.16598725558559       -1.64267002604968
H            0.00916881687489        2.11081931503376       -0.85992008871699
H           -1.28031749393017        1.32752528383962        1.02986061621970
H            0.41765056770920       -0.70311541856527        1.70505395722312
H            0.98673427350614        0.95311642023909        1.54165956907385
H           -0.53166393505086       -2.28141471286436        0.22658567825399
H           -3.06992448533457        2.75124798581106        0.35946838052106
H           -5.60849790710076        3.56833348174793        0.19377034616347
H           -5.41199802568844       -2.86138536969323       -0.25901197343163
H           -7.07426550769213        1.54883486632035       -0.07497858636354
H            8.10996560609051        1.45732910192459        0.15070940559631
H            6.73027902164393        2.25640802192102        0.91995971418803
H            6.83377530903328        2.18032320558091       -0.84046107191226
H            5.97005569811066       -1.36252793796312        1.41640967222516
H            6.21390555072012        0.18011633882714        2.24617974994490
H            7.58792157995097       -0.65415513687159        1.50403471069056
H            7.73909831465939       -0.76803881645658       -1.06559712786521
H            6.11720449886030       -1.47109589618648       -1.11012695034539
H            6.46882798566884       -0.00469891684256       -2.03421081997577
