  48

 C        -17.5199909170       35.8112169810        1.0016195220
 C        -17.6613792350       36.0308428300       -0.4967606420
 C        -19.1103476560       36.1366075300       -0.9601825090
 C        -16.7660645740       37.1281622780       -1.0480813180
 O        -17.2844792280       34.7319331160       -1.1773118130
 C        -16.0321271110       34.2142820210       -1.0801079490
 O        -15.1070892280       34.7047381580       -0.4426923060
 N        -15.9431266950       33.0856085780       -1.8986126490
 C        -14.8304144620       32.1170014760       -1.6739589490
 C        -14.5393673720       31.3718140350       -2.9997812870
 C        -14.4710209630       29.8748094740       -2.6696265210
 C        -15.2339099130       29.6969733250       -1.3352087810
 C        -15.1941277650       31.0558847630       -0.6054370470
 N        -14.6263674390       28.6116477600       -0.5255446260
 C        -13.3524443050       28.6330979770        0.1028220750
 N        -13.0659597970       27.4602939010        0.6981662880
 C        -14.1624956180       26.6188267170        0.4462964100
 C        -15.1432297480       27.3270699140       -0.3321929480
 C        -16.3193497640       26.6538676800       -0.7229267290
 C        -17.4998260010       26.9224370010       -1.4764427030
 C        -18.2657059100       25.7600736080       -1.4816141960
 N        -17.6098739400       24.7570462140       -0.7521543410
 C        -16.4077538050       25.2834172890       -0.2767626250
 N        -15.4724527630       24.5909248130        0.4848334350
 C        -14.3738973070       25.2611462990        0.8347427610
 H        -16.8247042110       32.6837895880       -2.2492143310
 H        -13.9304159780       32.7005103740       -1.3444094840
 H        -15.3461008830       31.5589975830       -3.7493183090
 H        -13.5762447450       31.7254967190       -3.4359283280
 H        -13.4083874390       29.5508115630       -2.5648496460
 H        -14.9426579980       29.2643818390       -3.4728909130
 H        -16.3023172240       29.4132487510       -1.5355081860
 H        -14.4336961680       31.0706385650        0.2095663870
 H        -16.1821409570       31.2662156670       -0.1326170360
 H        -12.7064133810       29.5080083940        0.0873652820
 H        -17.7553449300       27.8458882570       -1.9603339510
 H        -19.2234519230       25.5789814780       -1.9519279280
 H        -13.6195666380       24.7367847240        1.4388118020
 H        -17.9406669700       23.8107926920       -0.6022131060
 H        -19.1602197990       36.3087058150       -2.0594064740
 H        -19.6081306030       36.9869706030       -0.4394897240
 H        -19.6597918800       35.1964559930       -0.7224874420
 H        -16.4500995480       35.6454023050        1.2714588900
 H        -18.1095212550       34.9216149080        1.3210326320
 H        -17.8926201900       36.7050060680        1.5529864780
 H        -15.7057887620       36.9542047990       -0.7471324390
 H        -16.8203929070       37.1558922530       -2.1600545650
 H        -17.0940240950       38.1160773280       -0.6497201600
