  48
        -73.17272121
 C          6.5430243241       -0.4198838182        1.3929332059
 C          6.2878291846        0.3223876388        0.0820402452
 C          7.0391335265        1.6536591615        0.0613141626
 C          6.6752257308       -0.5335192000       -1.1229825996
 O          4.8874767241        0.7143094857       -0.0097661552
 C          3.9000481140       -0.1918372814       -0.0208458035
 O          4.0357397384       -1.4029542424        0.0418484711
 N          2.7124254406        0.4319480435       -0.1087436637
 C          1.4485077461       -0.2677975884       -0.1765288179
 C          0.6564894826        0.1094623951       -1.4436542650
 C         -0.4046501585        1.0995601725       -0.9693584769
 C         -0.7967776349        0.5620161603        0.4128139993
 C          0.5365177398        0.1085279951        1.0127900940
 N         -1.7477699854       -0.5210569610        0.2862073629
 C         -1.5207470445       -1.8604829139        0.1828631612
 N         -2.5945912252       -2.5752466260        0.0224127268
 C         -3.6284003341       -1.6674958804        0.0012527360
 C         -3.0995412532       -0.3653370683        0.1578285021
 C         -3.9753905149        0.7215336778        0.1511501791
 C         -3.9325630705        2.1362160066        0.2449239849
 C         -5.2224784076        2.5732124398        0.1540268494
 N         -6.0695559735        1.5145464069        0.0076732993
 C         -5.3433344115        0.3659727133       -0.0026311213
 N         -5.8575864118       -0.8608951385       -0.1425965094
 C         -5.0058601663       -1.8649084258       -0.1425570383
 H          2.7178586460        1.4390658265       -0.1677745132
 H          1.7131258083       -1.3285150923       -0.1705668824
 H          1.3084463089        0.5263983228       -2.2076944036
 H          0.1787236420       -0.7798048003       -1.8547426405
 H         -1.2586635607        1.1532664898       -1.6422222179
 H          0.0181042469        2.0967678337       -0.8590870876
 H         -1.2793844369        1.3237378361        1.0299744272
 H          0.4094055731       -0.7134846366        1.7134090765
 H          0.9831209712        0.9413796595        1.5539852475
 H         -0.5406207769       -2.2897625300        0.2364242000
 H         -3.0628901741        2.7514647662        0.3555785890
 H         -5.5984003021        3.5764355365        0.1835406267
 H         -5.4215185368       -2.8545396719       -0.2599391098
 H         -7.0702130962        1.5611425980       -0.0848223098
 H          6.7289325049        2.2673491663        0.9020586292
 H          6.8209297860        2.1879071133       -0.8588481696
 H          8.1065828020        1.4720585132        0.1252268966
 H          7.6016798282       -0.6397781097        1.4858496158
 H          5.9853647535       -1.3532001096        1.4111940730
 H          6.2304466845        0.1919952731        2.2359450297
 H          6.1170347137       -1.4666879962       -1.1164506292
 H          6.4568830755       -0.0006950232       -2.0456387649
 H          7.7363966225       -0.7572205874       -1.0838801267
  48
        -73.17228094
 C          6.7764471246       -0.7921114902       -0.5390621066
 C          6.2144834085        0.0818432649        0.5810872009
 C          6.0327723627       -0.7185642706        1.8699055773
 C          7.1134943934        1.2946314604        0.8218751758
 O          4.9455183354        0.6694252674        0.1712591800
 C          3.8821474499       -0.0865779887       -0.1326165610
 O          3.8350593671       -1.3055500043       -0.1046410995
 N          2.8512716891        0.7019064144       -0.4868527135
 C          1.5479269719        0.1971827051       -0.8362827683
 C          1.0218262704        0.7407275757       -2.1672233636
 C         -0.4680148294        0.4189817291       -2.1077928041
 C         -0.8643925236        0.5965841601       -0.6247015934
 C          0.4577666937        0.6074417022        0.1669229463
 N         -1.7563698729       -0.4499510419       -0.1871841640
 C         -1.4459742784       -1.7663742818       -0.0139096079
 N         -2.4432729209       -2.5057041490        0.3680502155
 C         -3.5119490473       -1.6429818833        0.4569915734
 C         -3.0867797341       -0.3403868086        0.1026159285
 C         -4.0218271062        0.6970162616        0.1167021368
 C         -4.0904854297        2.0886349199       -0.1513192166
 C         -5.3807120988        2.4698246319        0.0787065584
 N         -6.1242039515        1.3983357918        0.4751911100
 C         -5.3292128049        0.2968789416        0.5082499918
 N         -5.7418246431       -0.9284182434        0.8506860327
 C         -4.8398007435       -1.8867134346        0.8229362916
 H          2.9958662948        1.7002278706       -0.4566588017
 H          1.6481957207       -0.8917982654       -0.8785302677
 H          1.1773140354        1.8189794807       -2.2013790021
 H          1.5115762303        0.2867232377       -3.0249823930
 H         -0.6362187538       -0.6190038060       -2.3983749238
 H         -1.0583754652        1.0549606517       -2.7634075010
 H         -1.4036993777        1.5326346011       -0.4759667383
 H          0.4192715311       -0.0580249691        1.0273103583
 H          0.6673404340        1.6143331105        0.5259810013
 H         -0.4571179226       -2.1484532387       -0.1762195618
 H         -3.2963589447        2.7298954790       -0.4764419524
 H         -5.8231210375        3.4415212433       -0.0142453228
 H         -5.1734222423       -2.8763072635        1.0969001751
 H         -7.1036357800        1.4052737428        0.7048040271
 H          6.9961289247       -1.0859101585        2.2085114163
 H          5.3726413320       -1.5652467461        1.6972888915
 H          5.5994904413       -0.0884353736        2.6432750271
 H          7.7548453619       -1.1645414500       -0.2532207588
 H          6.8687477118       -0.2124832196       -1.4546040465
 H          6.1170398804       -1.6368221708       -0.7235419529
 H          8.0982670705        0.9638524894        1.1337338805
 H          7.2027191925        1.8763809031       -0.0909690619
 H          6.6853004484        1.9252389757        1.5956770966
  48
        -73.17226190
 C          6.0593234077       -0.8915447762        1.7716413412
 C          6.2270520777        0.0380920404        0.5707127420
 C          7.1247422526        1.2230672266        0.9271792608
 C          6.7812979848       -0.7138723853       -0.6383060670
 O          4.9529531517        0.6601635718        0.2345131210
 C          3.8887610754       -0.0637583481       -0.1371421740
 O          3.8443069133       -1.2792227743       -0.2345216457
 N          2.8532573467        0.7542135516       -0.3991548028
 C          1.5486548472        0.2861522197       -0.7923415747
 C          1.0120846277        0.9718632466       -2.0515240862
 C         -0.4769337494        0.6436311219       -2.0168345241
 C         -0.8626235863        0.6563062190       -0.5202549615
 C          0.4650755524        0.5801369504        0.2580735825
 N         -1.7532527329       -0.4322853592       -0.1972505534
 C         -1.4401149887       -1.7588161924       -0.1581426539
 N         -2.4408359400       -2.5370135215        0.1248462443
 C         -3.5152996722       -1.6914844869        0.2827371436
 C         -3.0897039720       -0.3576605648        0.0758067606
 C         -4.0295469402        0.6699977363        0.1816922823
 C         -4.0990799815        2.0821022128        0.0624122220
 C         -5.3949085126        2.4336405668        0.3077639197
 N         -6.1412521488        1.3242371467        0.5727509445
 C         -5.3422757939        0.2273614167        0.5033542915
 N         -5.7559981625       -1.0285515293        0.7042254751
 C         -4.8491465073       -1.9761874200        0.5931712101
 H          2.9968637316        1.7446159174       -0.2689282094
 H          1.6511623512       -0.7912443291       -0.9548289973
 H          1.1666240763        2.0475542051       -1.9680698730
 H          1.4950852120        0.6156824945       -2.9578828261
 H         -0.6467197164       -0.3565102922       -2.4183834470
 H         -1.0725443914        1.3468404655       -2.5943995505
 H         -1.4001938301        1.5702359209       -0.2652056818
 H          0.4337569315       -0.1769296391        1.0393013634
 H          0.6767478818        1.5409677401        0.7257356987
 H         -0.4468664664       -2.1193100761       -0.3416550054
 H         -3.3016906418        2.7560063334       -0.1774911353
 H         -5.8396833957        3.4087078711        0.3108261311
 H         -5.1836378863       -2.9901827300        0.7531296188
 H         -7.1243026185        1.3048795691        0.7856653587
 H          6.7057175517        1.7649839727        1.7700651032
 H          7.1979996985        1.8995436189        0.0805728863
 H          8.1153239370        0.8662034401        1.1877515033
 H          7.0266586291       -1.2890139726        2.0614166964
 H          5.3991841978       -1.7177610924        1.5186942949
 H          5.6323729530       -0.3458908845        2.6100015047
 H          6.1210777949       -1.5358018341       -0.9046197774
 H          6.8663463914       -0.0421629653       -1.4893372005
 H          7.7620656791       -1.1126336626       -0.4000050808
  48
        -73.17221163
 C          7.2051975692        0.8479096343        1.0522056739
 C          6.2295635280       -0.1886984196        0.4949757441
 C          6.6916199440       -0.6798713154       -0.8760888760
 C          6.0622730789       -1.3512925520        1.4722226579
 O          4.9772600626        0.5465681390        0.3695783730
 C          3.8647737604       -0.0322357165       -0.1007134428
 O          3.7551726918       -1.1937053895       -0.4587943901
 N          2.8613249418        0.8635824608       -0.1285659119
 C          1.5319016084        0.5453278358       -0.5825639263
 C          1.0015996171        1.5062762150       -1.6494318239
 C         -0.4965079190        1.2145075584       -1.6646066641
 C         -0.8647631257        0.8538544051       -0.2055500910
 C          0.4730945481        0.6456279032        0.5257976070
 N         -1.7085495372       -0.3169491134       -0.1535242829
 C         -1.3316536703       -1.6139368879       -0.3408346931
 N         -2.3079200670       -2.4688813058       -0.2832641315
 C         -3.4325747956       -1.7099840877       -0.0525284562
 C         -3.0630989956       -0.3460942284        0.0233226286
 C         -4.0598589286        0.6075052908        0.2410480884
 C         -4.1946492239        2.0137797623        0.3720517082
 C         -5.5211903801        2.2639775210        0.5740395850
 N         -6.2249320815        1.0965717480        0.5769626233
 C         -5.3668309934        0.0629273737        0.3739978666
 N         -5.7277469325       -1.2233132491        0.3112346471
 C         -4.7678184318       -2.0984897886        0.0984483217
 H          3.0568920237        1.7966110175        0.2022956643
 H          1.5862672708       -0.4737551005       -0.9780503934
 H          1.1870520162        2.5323161034       -1.3319532468
 H          1.4651563557        1.3486324103       -2.6199914436
 H         -0.7013594721        0.3541822040       -2.3035374595
 H         -1.0795660884        2.0555926132       -2.0325782452
 H         -1.4361571689        1.6551558115        0.2650889921
 H          0.4558120843       -0.2338793530        1.1662916567
 H          0.6929110366        1.5147150723        1.1449227130
 H         -0.3123782835       -1.8974638285       -0.5152741634
 H         -3.4183222216        2.7499519899        0.3183628246
 H         -6.0159906917        3.2038357647        0.7169689758
 H         -5.0594357396       -3.1365786009        0.0434251624
 H         -7.2184989886        0.9995520220        0.7014013343
 H          6.7721814395        0.1576110798       -1.5651937045
 H          5.9805548744       -1.3976857231       -1.2778993172
 H          7.6610202227       -1.1586383406       -0.7827066745
 H          8.1824339023        0.3960410826        1.1838242481
 H          6.8484991409        1.2156351794        2.0098953808
 H          7.2872394791        1.6859804814        0.3661627622
 H          7.0175448343       -1.8458149688        1.6156916421
 H          5.7027876834       -0.9848473758        2.4310044702
 H          5.3471093517       -2.0713431768        1.0816774822
  48
        -73.17207393
 C          6.0048132177       -1.0196370434        0.9175495009
 C          5.4900650503        0.4158255804        1.0112728914
 C          4.9675058882        0.7261063170        2.4132059857
 C          6.5823320178        1.4079390437        0.6116112367
 O          4.4425583913        0.6399219565        0.0233389317
 C          3.2964069241       -0.0543471505        0.0384895639
 O          2.9917832603       -0.9202790718        0.8423607960
 N          2.5141532836        0.3414236975       -0.9815461159
 C          1.1970778584       -0.1888967754       -1.2301312849
 C          1.0359039612       -0.7369084894       -2.6621593261
 C         -0.3909786265       -0.3690728344       -3.1041885239
 C         -1.0712895362        0.2619526057       -1.8835377052
 C          0.0931175214        0.8678301337       -1.0954100420
 N         -1.7829919910       -0.7043886498       -1.0752504094
 C         -1.5965437868       -2.0499200681       -0.9719980133
 N         -2.3763020914       -2.6353197826       -0.1128138141
 C         -3.1402493420       -1.6241442734        0.4231899451
 C         -2.7632983173       -0.3985822997       -0.1732442795
 C         -3.4050103161        0.7726272463        0.2325452763
 C         -3.3698231824        2.1651968261       -0.0353231531
 C         -4.3145725470        2.7410472564        0.7640312466
 N         -4.9380782714        1.7901439450        1.5168370524
 C         -4.4061017160        0.5747882344        1.2223260741
 N         -4.7790952682       -0.5785759118        1.7877466112
 C         -4.1488305410       -1.6647359196        1.3917223902
 H          2.8605246141        1.0817550094       -1.5737869601
 H          1.0502271885       -0.9808378078       -0.4886127763
 H          1.7721455109       -0.2686035255       -3.3133664717
 H          1.2103625392       -1.8106187947       -2.6865964019
 H         -0.9504009037       -1.2283297758       -3.4680798156
 H         -0.3606250047        0.3695227263       -3.9030529617
 H         -1.8055440434        1.0175970791       -2.1738886520
 H         -0.1662526528        1.0703205154       -0.0577744816
 H          0.4113071591        1.7947278972       -1.5709665938
 H         -0.8728452876       -2.5837388590       -1.5534844467
 H         -2.7248120768        2.6760064312       -0.7210147021
 H         -4.5876016181        3.7739332525        0.8492457871
 H         -4.4477999361       -2.5943802377        1.8524345709
 H         -5.6713151322        1.9477318768        2.1872460773
 H          4.5791442111        1.7412530816        2.4513579818
 H          5.7742851637        0.6262925206        3.1321041631
 H          4.1704427339        0.0356593508        2.6788521929
 H          6.8347602350       -1.1537381132        1.6037724065
 H          6.3412371897       -1.2306633147       -0.0948927661
 H          5.2146785102       -1.7200213253        1.1776170862
 H          7.4189526256        1.3263708375        1.2970715270
 H          6.9236505171        1.1965291195       -0.3975723787
 H          6.1910526238        2.4207384917        0.6417276997
  48
        -73.17205419
 C          6.6022786371        1.2757550689        0.9399098261
 C          5.5234189938        0.2034758053        1.0928019826
 C          6.0468465481       -1.1563984416        0.6331479886
 C          5.0219183356        0.1453351063        2.5349170163
 O          4.4577587373        0.6565340418        0.2080782531
 C          3.3190222959       -0.0348299170        0.0630288730
 O          3.0349958127       -1.0780079402        0.6286948998
 N          2.5163211029        0.5939761807       -0.8140229125
 C          1.2102247926        0.1125916499       -1.1882806899
 C          1.0712022566       -0.1159640512       -2.7071378344
 C         -0.3556439597        0.3228374350       -3.0781505008
 C         -1.0578375994        0.6674377358       -1.7593050197
 C          0.0894015825        1.1009045880       -0.8426017552
 N         -1.7666656460       -0.4585476417       -1.1907521526
 C         -1.5568067885       -1.7923387252       -1.3724577563
 N         -2.3452963461       -2.5588094082       -0.6798201975
 C         -3.1415194131       -1.6963691266        0.0382992460
 C         -2.7737928136       -0.3664890366       -0.2713977124
 C         -3.4471089366        0.6816288824        0.3581908130
 C         -3.4309534692        2.0995476342        0.3966083744
 C         -4.4056628737        2.4779488653        1.2739716003
 N         -5.0304206058        1.3795626443        1.7868277111
 C         -4.4686425626        0.2627648014        1.2538266944
 N         -4.8342108630       -0.9899712057        1.5473863221
 C         -4.1733752106       -1.9572318510        0.9461511687
 H          2.8515311036        1.4567938319       -1.2165387623
 H          1.0691922233       -0.8230573776       -0.6375809784
 H          1.8078400641        0.4891834357       -3.2330993446
 H          1.2603283380       -1.1573881616       -2.9595035338
 H         -0.8991564817       -0.4439543486       -3.6261813522
 H         -0.3269213876        1.2167384795       -3.6984539052
 H         -1.7987929358        1.4601012459       -1.8897032305
 H         -0.1845514142        1.0701064749        0.2103938736
 H          0.3990269668        2.1127309592       -1.1011197218
 H         -0.8092588310       -2.1789510322       -2.0346324625
 H         -2.7785196778        2.7540747798       -0.1447402677
 H         -4.6998878667        3.4646888114        1.5712581221
 H         -4.4665984163       -2.9680679485        1.1873501915
 H         -5.7824338961        1.3806010953        2.4549708087
 H          6.3684424271       -1.1015512842       -0.4043175111
 H          5.2660667141       -1.9084087004        0.7188381290
 H          6.8885863104       -1.4499951474        1.2519746722
 H          7.4544419030        1.0281139701        1.5635765529
 H          6.2084425721        2.2429085778        1.2384307538
 H          6.9215087105        1.3346926470       -0.0965573058
 H          4.6224415213        1.1127109150        2.8306177042
 H          4.2374226701       -0.6016443945        2.6305606203
 H          5.8421747015       -0.1181173829        3.1948140886
  48
        -73.17206867
 C          6.0498206961       -1.0405819154        0.8191250704
 C          5.5373045311        0.3892181394        0.9850412265
 C          5.0505568781        0.6409516663        2.4113347800
 C          6.6192031002        1.3979661914        0.5989724690
 O          4.4650575345        0.6517853227        0.0337227844
 C          3.3216057244       -0.0469583215        0.0475667595
 O          3.0369970998       -0.9433981900        0.8248947875
 N          2.5151153999        0.3858299463       -0.9378686106
 C          1.2029000880       -0.1538995561       -1.1919136872
 C          1.0491491223       -0.6963107406       -2.6272683034
 C         -0.3792884325       -0.3378405290       -3.0714057260
 C         -1.0671325454        0.2853977239       -1.8507877906
 C          0.0908870491        0.8935639633       -1.0547617219
 N         -1.7794102374       -0.6876229250       -1.0511822889
 C         -1.5769435172       -2.0305150699       -0.9429777882
 N         -2.3637043980       -2.6253066234       -0.0967476592
 C         -3.1503132368       -1.6237727280        0.4244192749
 C         -2.7796168143       -0.3939262164       -0.1671698499
 C         -3.4449914022        0.7687589515        0.2249664775
 C         -3.4248551312        2.1612733319       -0.0447197926
 C         -4.3923479950        2.7248209281        0.7359614801
 N         -5.0159069091        1.7662824388        1.4790473818
 C         -4.4611532805        0.5582828521        1.1966713956
 N         -4.8279576523       -0.5992838603        1.7574340096
 C         -4.1753877822       -1.6770515328        1.3748613126
 H          2.8515071588        1.1411598724       -1.5167987149
 H          1.0613825372       -0.9512235411       -0.4551895713
 H          1.7834013441       -0.2190415690       -3.2742611145
 H          1.2324705699       -1.7684717004       -2.6564119844
 H         -0.9316425758       -1.2006698967       -3.4377739943
 H         -0.3526641762        0.4022615740       -3.8689800175
 H         -1.8032545794        1.0389566967       -2.1414476393
 H         -0.1738757759        1.0880521200       -0.0170032227
 H          0.4042570993        1.8255517836       -1.5234976560
 H         -0.8361242208       -2.5550381078       -1.5112483275
 H         -2.7747343044        2.6804658289       -0.7191957970
 H         -4.6817025178        3.7538114505        0.8138051212
 H         -4.4695454125       -2.6101432771        1.8317197001
 H         -5.7625718345        1.9144327740        2.1367396729
 H          4.6632463283        1.6532440485        2.5010368056
 H          5.8753650700        0.5124976534        3.1048162992
 H          4.2604189508       -0.0605890285        2.6683792261
 H          6.3588729005       -1.2095660240       -0.2098194853
 H          5.2673154801       -1.7522489225        1.0715437009
 H          6.8980736552       -1.2012298011        1.4766521168
 H          7.4733180957        1.2880312456        1.2584265209
 H          6.9341364011        1.2292569135       -0.4266840881
 H          6.2297037646        2.4084618261        0.6819087593
  48
        -73.17203081
 C          6.6739178320        1.2292198303        0.9500515632
 C          5.6139020683        0.1311384942        1.0379679118
 C          6.1349483077       -1.1703509020        0.4302302342
 C          5.1687153231       -0.0733034847        2.4851915344
 O          4.5107614387        0.6514802524        0.2403564049
 C          3.3744935734       -0.0383017337        0.0704831744
 O          3.1225569361       -1.1349340883        0.5424179242
 N          2.5313128981        0.6630583624       -0.7081726984
 C          1.2304229599        0.1871500904       -1.1071518090
 C          1.0956637765        0.0283859430       -2.6353891199
 C         -0.3422330736        0.4470216800       -2.9858866708
 C         -1.0443248974        0.7441335847       -1.6545394792
 C          0.1000915432        1.1480059029       -0.7203175007
 N         -1.7538287699       -0.4026874339       -1.1306501754
 C         -1.5038310277       -1.7283848159       -1.3220793594
 N         -2.3030846342       -2.5237740161       -0.6761586741
 C         -3.1516880972       -1.6914167695        0.0170762741
 C         -2.8038318051       -0.3482728433       -0.2573380069
 C         -3.5336054506        0.6734504776        0.3528532977
 C         -3.5592108325        2.0907403182        0.4086201146
 C         -4.5849892799        2.4310701390        1.2423313306
 N         -5.2022511602        1.3094975990        1.7120274022
 C         -4.5847620055        0.2156012613        1.1935853739
 N         -4.9301583038       -1.0499475211        1.4543935335
 C         -4.2169758534       -1.9914973476        0.8726371479
 H          2.8490942766        1.5577595336       -1.0508167663
 H          1.0981603825       -0.7747337051       -0.6014386526
 H          1.8155552263        0.6789656073       -3.1295767018
 H          1.3132176160       -0.9937399607       -2.9387657906
 H         -0.8737742697       -0.3189288996       -3.5470006906
 H         -0.3362683819        1.3545121306       -3.5866068017
 H         -1.7864481829        1.5391788576       -1.7575521327
 H         -0.1742614400        1.0706909306        0.3301494654
 H          0.3999909163        2.1727240924       -0.9357998190
 H         -0.7189105925       -2.0862813953       -1.9568031505
 H         -2.9007274301        2.7707406765       -0.0925849067
 H         -4.9209850551        3.4055971021        1.5355941676
 H         -4.4947209114       -3.0127154127        1.0868229285
 H         -5.9824581505        1.2802879965        2.3463278384
 H          6.4182960007       -1.0111368871       -0.6076058033
 H          5.3659177360       -1.9381056149        0.4700150024
 H          7.0016637916       -1.5105194060        0.9877073187
 H          7.5508700767        0.9367723213        1.5174266239
 H          6.2796482050        2.1577323561        1.3525792752
 H          6.9549287495        1.3906336859       -0.0866104514
 H          4.7725940035        0.8554382408        2.8892579293
 H          4.3951814445       -0.8358564147        2.5365728560
 H          6.0160488673       -0.3897728626        3.0848677514
  48
        -73.17206459
 C          6.0589258899       -1.0509852250        0.7943237719
 C          5.5507699627        0.3782318412        0.9778642694
 C          5.0737984211        0.6168601452        2.4096951032
 C          6.6327050268        1.3881191266        0.5948489724
 O          4.4729753318        0.6526819395        0.0361789567
 C          3.3287097727       -0.0447113475        0.0495692696
 O          3.0471821735       -0.9482070440        0.8198040215
 N          2.5171123618        0.3988556765       -0.9268495293
 C          1.2056892929       -0.1417226679       -1.1831615017
 C          1.0530631183       -0.6789805765       -2.6206176107
 C         -0.3770923921       -0.3241261491       -3.0620221891
 C         -1.0653574258        0.2956990831       -1.8397301922
 C          0.0920099873        0.9033474924       -1.0422646646
 N         -1.7769182601       -0.6801461841       -1.0429835970
 C         -1.5679136168       -2.0219475858       -0.9334249606
 N         -2.3560867115       -2.6207599623       -0.0913926131
 C         -3.1509268686       -1.6233370570        0.4251858159
 C         -2.7836126289       -0.3916138680       -0.1646701066
 C         -3.4577909606        0.7674312366        0.2232436448
 C         -3.4440579810        2.1599459308       -0.0467712609
 C         -4.4192956077        2.7182527700        0.7280138514
 N         -5.0417564815        1.7564008976        1.4677329949
 C         -4.4784785918        0.5514773477        1.1890053895
 N         -4.8419731248       -0.6079522236        1.7480977459
 C         -4.1811419152       -1.6821039925        1.3697161740
 H          2.8523999103        1.1573258019       -1.5022996646
 H          1.0652834702       -0.9420288817       -0.4494826198
 H          1.7849069510       -0.1959458063       -3.2660876283
 H          1.2406538321       -1.7502767687       -2.6545066039
 H         -0.9273996484       -1.1884060817       -3.4281186165
 H         -0.3538867888        0.4165454764       -3.8591767911
 H         -1.8022891002        1.0491060573       -2.1284900269
 H         -0.1728246227        1.0942628991       -0.0038707403
 H          0.4036304066        1.8372791233       -1.5082433928
 H         -0.8212701447       -2.5425582214       -1.4976764924
 H         -2.7927262990        2.6827869878       -0.7172948953
 H         -4.7146541327        3.7456411246        0.8040819358
 H         -4.4724430424       -2.6166598176        1.8253975857
 H         -5.7927767678        1.9005297802        2.1213550978
 H          4.6895284357        1.6291178168        2.5118961474
 H          5.9026858219        0.4795867280        3.0965727519
 H          4.2836613637       -0.0853577070        2.6648293080
 H          5.2765297653       -1.7633450962        1.0450759016
 H          6.9112969580       -1.2200506062        1.4443903879
 H          6.3605300297       -1.2103892914       -0.2383637186
 H          6.9405304370        1.2289335665       -0.4344914736
 H          6.2463262125        2.3986874689        0.6903718817
 H          7.4908221146        1.2694882703        1.2475802108
  48
        -73.17206213
 C          6.5973632775        1.2691597262        0.9380506680
 C          5.5114335247        0.2052921513        1.0993261304
 C          6.0289009552       -1.1631253699        0.6585895331
 C          5.0033723456        0.1678298299        2.5398431215
 O          4.4521017347        0.6540011655        0.2047680286
 C          3.3107314445       -0.0334380855        0.0619953561
 O          3.0191496667       -1.0689434185        0.6378349247
 N          2.5150134471        0.5890891219       -0.8258584052
 C          1.2079084162        0.1095216068       -1.1988803366
 C          1.0685490134       -0.1232925978       -2.7169245616
 C         -0.3581309203        0.3154510811       -3.0888785621
 C         -1.0595019842        0.6637148755       -1.7705827986
 C          0.0883746710        1.1004545382       -0.8562550250
 N         -1.7664938199       -0.4611493782       -1.1974591202
 C         -1.5576479058       -1.7953530829       -1.3774717997
 N         -2.3420628549       -2.5603221953       -0.6786045009
 C         -3.1340883858       -1.6963666366        0.0423156905
 C         -2.7684369611       -0.3671057423       -0.2725857927
 C         -3.4386392618        0.6823055409        0.3581322100
 C         -3.4232616305        2.1003214694        0.3924929483
 C         -4.3933195151        2.4804940495        1.2742711047
 N         -5.0142672494        1.3831552385        1.7938909512
 C         -4.4546993832        0.2652329270        1.2608072884
 N         -4.8175294467       -0.9869126469        1.5602087509
 C         -4.1600264924       -1.9554114262        0.9573445213
 H          2.8544144004        1.4475701701       -1.2341644717
 H          1.0648557797       -0.8242238220       -0.6454590844
 H          1.8056368585        0.4797363945       -3.2446327499
 H          1.2569231236       -1.1655675069       -2.9662911949
 H         -0.9022117316       -0.4521804484       -3.6351769644
 H         -0.3289221060        1.2079704109       -3.7111293355
 H         -1.8011612547        1.4554581238       -1.9026708498
 H         -0.1847111058        1.0739392398        0.1971249262
 H          0.3984171537        2.1110363973       -1.1191349413
 H         -0.8140495835       -2.1836094676       -2.0431552243
 H         -2.7744199645        2.7537636439       -0.1544559992
 H         -4.6865973038        3.4679328043        1.5702607888
 H         -4.4512985672       -2.9657367792        1.2029286232
 H         -5.7622959269        1.3853645534        2.4665360323
 H          6.8670459364       -1.4534405478        1.2838213762
 H          6.3541181113       -1.1232494739       -0.3784463967
 H          5.2437615085       -1.9097250072        0.7512569704
 H          6.2077193040        2.2424542306        1.2217718429
 H          6.9223067032        1.3125180788       -0.0974189358
 H          7.4448057035        1.0247953522        1.5693920574
 H          4.2126929739       -0.5719222777        2.6405637559
 H          5.8186466805       -0.0945471050        3.2062705947
 H          4.6102625897        1.1416017055        2.8228265577
  48
        -73.17199876
 C          5.5354629340        0.8058665681       -2.2340282571
 C          5.7926531490        0.6343539487       -0.7376768246
 C          6.9223323833       -0.3669746628       -0.4962495761
 C          6.1088869648        1.9732644792       -0.0729190375
 O          4.6391581481        0.0153683195       -0.0976225637
 C          3.4353173041        0.6043215755       -0.0926910507
 O          3.1597724391        1.6795617237       -0.5986436741
 N          2.5538992156       -0.1713080092        0.5635381976
 C          1.1661848561        0.1797954211        0.7513789159
 C          0.7863321842        0.2425829190        2.2422429147
 C         -0.6627377677       -0.2268296403        2.2992470088
 C         -0.7057734874       -1.3438294337        1.2496573495
 C          0.2098350366       -0.8527640447        0.1152743340
 N         -2.0376654879       -1.6694135856        0.8085011194
 C         -2.6257297415       -2.8900978735        0.9600819165
 N         -3.8379034271       -2.9670697308        0.5050227655
 C         -4.1053940122       -1.7139685704        0.0061531373
 C         -2.9737009997       -0.8806494300        0.1911498833
 C         -3.0505758400        0.4425088282       -0.2580863454
 C         -2.2460012219        1.6114453363       -0.3141670640
 C         -2.9969344263        2.5804935203       -0.9134289633
 N         -4.2261698417        2.0895981112       -1.2370169067
 C         -4.2960693140        0.7879145231       -0.8544501999
 N         -5.3677063205        0.0082214712       -1.0300883374
 C         -5.2681985155       -1.2321345911       -0.6028363279
 H          2.8943495827       -1.0412326361        0.9451565302
 H          1.0545299889        1.1582118760        0.2759977725
 H          1.4208894505       -0.4470469126        2.7995094910
 H          0.9192010593        1.2398784408        2.6541590743
 H         -1.3423804865        0.5743480115        2.0132420348
 H         -0.9469760242       -0.5836639134        3.2872172768
 H         -0.2978341019       -2.2613202332        1.6845467693
 H         -0.3855886792       -0.3933150039       -0.6713700794
 H          0.7688278132       -1.6744100917       -0.3285897041
 H         -2.1131233509       -3.7116911410        1.4212745217
 H         -1.2409488977        1.7304214816        0.0351914449
 H         -2.7335282427        3.5959225245       -1.1330376480
 H         -6.1292659916       -1.8679869166       -0.7429922743
 H         -4.9704692048        2.5939947483       -1.6882067582
 H          6.6696149683       -1.3251713668       -0.9410426379
 H          7.0715937967       -0.5071408058        0.5704551177
 H          7.8400789897        0.0028494769       -0.9406059473
 H          5.2806567496       -0.1520843203       -2.6815564848
 H          6.4270243609        1.1967233329       -2.7136188161
 H          4.7134590908        1.4986269702       -2.3972273924
 H          5.2909346550        2.6725622057       -0.2282338920
 H          6.2536742072        1.8344237389        0.9959778841
 H          7.0144633491        2.3878180608       -0.5038991343
  48
        -73.17192390
 C          6.1198011609        1.8812336278        0.4000078932
 C          5.7744582741        0.7923728841       -0.6147112694
 C          5.4827390617        1.3897945551       -1.9904738277
 C          6.9000501907       -0.2383532071       -0.7029069128
 O          4.6309152842        0.0175443464       -0.1504050527
 C          3.4328608056        0.5824386288        0.0536311769
 O          3.1545883733        1.7576946404       -0.1178377084
 N          2.5614093595       -0.3460653486        0.4868467519
 C          1.1763174894       -0.0649047429        0.7816549539
 C          0.8063922645       -0.4485996656        2.2259247131
 C         -0.6470491986       -0.9015921210        2.1517744686
 C         -0.7060454523       -1.6559285174        0.8181325410
 C          0.2106242938       -0.8589474992       -0.1257871792
 N         -2.0431741136       -1.8237148810        0.3099792403
 C         -2.6445709095       -3.0289727847        0.0989679567
 N         -3.8597735662       -2.9563338177       -0.3487231394
 C         -4.1153599681       -1.6093889517       -0.4526168830
 C         -2.9733254858       -0.8788675274       -0.0384823033
 C         -3.0379086287        0.5185751478       -0.0744353284
 C         -2.2210613382        1.6441905018        0.2126505896
 C         -2.9642515135        2.7541274575       -0.0661673278
 N         -4.2001978582        2.3923923365       -0.5118123471
 C         -4.2824061575        1.0365254056       -0.5316652473
 N         -5.3632917155        0.3538623960       -0.9223169896
 C         -5.2757555557       -0.9582640212       -0.8822358096
 H          2.9014685887       -1.2905545157        0.5898615609
 H          1.0651144350        1.0108816469        0.6202011600
 H          1.4366468936       -1.2789387660        2.5452743346
 H          0.9516212387        0.3782559243        2.9165931864
 H         -1.3196729694       -0.0458197272        2.1217435222
 H         -0.9306297570       -1.5335950362        2.9910838175
 H         -0.3063190899       -2.6648674027        0.9581301756
 H         -0.3828149222       -0.1851401157       -0.7409026359
 H          0.7627633761       -1.5179676067       -0.7933104633
 H         -2.1395357884       -3.9552065003        0.2925734871
 H         -1.2130672858        1.6450615096        0.5735495279
 H         -2.6907020639        3.7864683714        0.0237131582
 H         -6.1443862339       -1.5164657895       -1.1973880680
 H         -4.9417837852        3.0142099071       -0.7864841200
 H          5.2065392623        0.6028604097       -2.6885837008
 H          6.3667732614        1.8991963149       -2.3602129225
 H          4.6647782939        2.1031629097       -1.9250745185
 H          7.0168716620        2.4026625945        0.0820730622
 H          6.2921513605        1.4388341573        1.3784446495
 H          5.3039257538        2.5958444747        0.4767754527
 H          7.0731258027       -0.6828250967        0.2729049467
 H          6.6281506296       -1.0254369110       -1.4003192900
 H          7.8105022901        0.2427377954       -1.0437332364
  48
        -73.17191582
 C          6.1400155516        1.8307022741        0.4780772383
 C          5.7901301086        0.8003427027       -0.5945717700
 C          5.5145791683        1.4721117970       -1.9389720081
 C          6.9051414158       -0.2368855973       -0.7295907305
 O          4.6354373558        0.0151236123       -0.1778082472
 C          3.4414201594        0.5812755496        0.0456851106
 O          3.1753620687        1.7660605002       -0.0708189519
 N          2.5575484491       -0.3588969901        0.4250877554
 C          1.1771079260       -0.0763174343        0.7396149529
 C          0.8231168318       -0.4691054506        2.1858551707
 C         -0.6322880908       -0.9174322412        2.1253916495
 C         -0.7077796071       -1.6634752568        0.7879041054
 C          0.1992730465       -0.8617640823       -0.1615223691
 N         -2.0508955513       -1.8267042423        0.2942065803
 C         -2.6565220673       -3.0300868092        0.0844909128
 N         -3.8763891437       -2.9535977367       -0.3496578959
 C         -4.1309280136       -1.6057843077       -0.4448917813
 C         -2.9833004486       -0.8788634185       -0.0398250799
 C         -3.0460420862        0.5188080542       -0.0686994960
 C         -2.2245759892        1.6418568541        0.2152410631
 C         -2.9687586697        2.7541825289       -0.0510539075
 N         -4.2096440966        2.3964198594       -0.4859857595
 C         -4.2943398618        1.0407545000       -0.5108766180
 N         -5.3804174247        0.3615391714       -0.8931893401
 C         -5.2946600189       -0.9509029983       -0.8597498583
 H          2.8909209037       -1.3086441230        0.4964530616
 H          1.0669690428        1.0010938847        0.5884955262
 H          1.4547880744       -1.3033455288        2.4921038420
 H          0.9792146967        0.3527013998        2.8802269274
 H         -1.3026426118       -0.0595249019        2.1079971463
 H         -0.9082394904       -1.5537058803        2.9639963302
 H         -0.3077348811       -2.6737262475        0.9173973671
 H         -0.4003583485       -0.1827727122       -0.7647890079
 H          0.7419028214       -1.5173509128       -0.8400151980
 H         -2.1508259770       -3.9579559459        0.2683266890
 H         -1.2131980472        1.6395939884        0.5665858923
 H         -2.6927062391        3.7856912609        0.0407645970
 H         -6.1676235254       -1.5061984596       -1.1679241393
 H         -4.9529819193        3.0206787181       -0.7501786707
 H          5.2342178726        0.7260204337       -2.6790314885
 H          6.4069603239        1.9895608550       -2.2760027342
 H          4.7045032071        2.1907837334       -1.8413737080
 H          7.0437654793        2.3594012636        0.1928153840
 H          6.3026222054        1.3356555454        1.4326766996
 H          5.3304390704        2.5481503684        0.5880960456
 H          7.8234957409        0.2512592473       -1.0376562249
 H          7.0658137239       -0.7348152671        0.2222609424
 H          6.6301803300       -0.9826107930       -1.4699394264
  48
        -73.17190440
 C          4.3302320285        2.1854932786       -1.3013524832
 C          4.1694773733        2.0548017208        0.2127600304
 C          5.4841097720        2.3796839225        0.9224010667
 C          3.0449531534        2.9514561124        0.7296086471
 O          3.9160637923        0.6672174979        0.5753371172
 C          2.8327548769        0.0070465995        0.1350946438
 O          1.9701510396        0.4689573998       -0.5922363768
 N          2.8478713969       -1.2456420787        0.6275362987
 C          1.8419865930       -2.2615907029        0.3742982967
 C          1.7830499250       -2.6821448747       -1.1125154626
 C          0.2974418545       -2.8619953865       -1.4139838622
 C         -0.3191781820       -1.7109183330       -0.6229116778
 C          0.4139388378       -1.7932022990        0.7248388286
 N         -1.7510318658       -1.7435735794       -0.4772899389
 C         -2.6053815519       -2.8034336758       -0.5275544803
 N         -3.8468005614       -2.5040033258       -0.2839558031
 C         -3.8460608127       -1.1498291292       -0.0382544923
 C         -2.5236519213       -0.6630312401       -0.1557539076
 C         -2.2831038535        0.6949084055        0.0559754678
 C         -1.1936438036        1.6032644089        0.0560242845
 C         -1.7099055783        2.8287532334        0.3629501726
 N         -3.0583323658        2.7395089508        0.5565362411
 C         -3.4446343175        1.4490181427        0.3764888737
 N         -4.7004415809        1.0028084116        0.4913528266
 C         -4.8956982942       -0.2831207924        0.2849579399
 H          3.6377446569       -1.4769359643        1.2090144351
 H          2.1174294288       -3.1112366597        0.9991596980
 H          2.1827343736       -1.8711613000       -1.7212654478
 H          2.3611672777       -3.5821137801       -1.3063294926
 H         -0.0474936381       -3.8187518423       -1.0227866479
 H          0.0742026727       -2.8085347476       -2.4772204028
 H         -0.0601018658       -0.7645575250       -1.1082641606
 H         -0.0822827466       -2.5253544144        1.3622606917
 H          0.4205644685       -0.8344092895        1.2391309484
 H         -2.2832987790       -3.7975681596       -0.7625902883
 H         -0.1665958765        1.3762706953       -0.1523587829
 H         -1.2039046325        3.7690143205        0.4582488790
 H         -5.9106744344       -0.6393532835        0.3782467185
 H         -3.6771143697        3.4970283928        0.7921636715
 H          5.3673702800        2.2538693465        1.9949647138
 H          5.7711254482        3.4041896567        0.7111989876
 H          6.2665121469        1.7099405700        0.5771623611
 H          3.3984494543        1.9363625372       -1.8032522230
 H          5.1095484233        1.5134079590       -1.6533563377
 H          4.6018819141        3.2062312946       -1.5504878506
 H          2.1107410501        2.7180182760        0.2248460127
 H          2.9113960614        2.8047689853        1.7989731785
 H          3.2949724458        3.9906020777        0.5415653959
  48
        -73.17181508
 C          5.9791426553        2.7319800137        0.1777826605
 C          5.7387470085        1.2537259825        0.4847907946
 C          6.7175177036        0.3763496139       -0.2942890798
 C          5.8373524995        0.9930461487        1.9871774679
 O          4.3769298464        1.0208408708        0.0222899481
 C          3.7954502462       -0.1834619360        0.1193113859
 O          4.3034137851       -1.1897053497        0.5868548041
 N          2.5485373557       -0.1278628509       -0.3789609202
 C          1.6629547272       -1.2706430439       -0.4334453638
 C          1.1885215199       -1.5446755306       -1.8634816870
 C          0.0235956013       -0.5748073470       -2.0677291353
 C         -0.6239086639       -0.3912423996       -0.6787006478
 C          0.3613580672       -1.0115987829        0.3356396880
 N         -1.9237955939       -1.0152760886       -0.5983422167
 C         -2.2310942949       -2.3001882663       -0.9352524283
 N         -3.4773475609       -2.6182327009       -0.7554510038
 C         -4.0661046882       -1.4786668515       -0.2571980331
 C         -3.0886526571       -0.4602332638       -0.1501676149
 C         -3.4744995616        0.7887206670        0.3421158599
 C         -2.9045604397        2.0556727905        0.6307672826
 C         -3.9133842976        2.8410776858        1.1086755880
 N         -5.0820647130        2.1402179536        1.1362631730
 C         -4.8534272967        0.8817682410        0.6774696564
 N         -5.7864333520       -0.0711191983        0.5773358678
 C         -5.3926396054       -1.2392650780        0.1156709868
 H          2.2319330661        0.7561299389       -0.7459144397
 H          2.2321961332       -2.1020726519       -0.0108446838
 H          1.9853731862       -1.3971646639       -2.5886790333
 H          0.8498284291       -2.5775833962       -1.9316795814
 H         -0.6989851648       -0.9496582212       -2.7906122439
 H          0.3903886626        0.3838394264       -2.4304620397
 H         -0.7889549552        0.6656360933       -0.4681670563
 H         -0.0378557954       -1.9590991189        0.6966503176
 H          0.5279868466       -0.3656199593        1.1947492110
 H         -1.4990891621       -2.9831000621       -1.3180959217
 H         -1.8831251989        2.3549459382        0.5089310719
 H         -3.8765810973        3.8615930936        1.4339960619
 H         -6.1448204220       -2.0098142306        0.0370191776
 H         -5.9756298910        2.4838167213        1.4453734127
 H          6.5244058021       -0.6743018504       -0.0912706134
 H          7.7338275208        0.6122218737        0.0043795261
 H          6.6096182928        0.5531391658       -1.3619704715
 H          5.2541725435        3.3432613902        0.7073524185
 H          5.8730725182        2.9112793894       -0.8882037696
 H          6.9794567586        3.0121046327        0.4899463572
 H          5.1142114567        1.6051136872        2.5212316746
 H          5.6367401749       -0.0540415054        2.2010664128
 H          6.8359909084        1.2386520539        2.3337754228
  48
        -73.17179645
 C          5.9309698595        2.7502926908        0.1388347742
 C          5.6804589602        1.2889768114        0.5117336703
 C          6.7078905444        0.3789576979       -0.1597682759
 C          5.6916423458        1.1109833833        2.0293749552
 O          4.3487872907        1.0204630770       -0.0148287849
 C          3.7683143715       -0.1812315046        0.1151648049
 O          4.2556348011       -1.1580689766        0.6605704358
 N          2.5502628359       -0.1618079264       -0.4523494047
 C          1.6661318636       -1.3066931514       -0.4753350032
 C          1.1897786624       -1.6162023435       -1.8969514234
 C          0.0254135215       -0.6503233589       -2.1242761837
 C         -0.6166914372       -0.4255864282       -0.7388116668
 C          0.3644779592       -1.0309953704        0.2882594085
 N         -1.9229388000       -1.0328604613       -0.6374089829
 C         -2.2532840199       -2.3141203839       -0.9660795682
 N         -3.4990700215       -2.6166767976       -0.7584271525
 C         -4.0624067075       -1.4701295544       -0.2470240422
 C         -3.0700678817       -0.4641834581       -0.1613595078
 C         -3.4280755218        0.7882242124        0.3429087393
 C         -2.8346266884        2.0461897474        0.6233384650
 C         -3.8216548079        2.8429365836        1.1273511067
 N         -4.9987948056        2.1577488052        1.1785289818
 C         -4.7975809417        0.8981727259        0.7100724955
 N         -5.7450258577       -0.0421508016        0.6285453428
 C         -5.3770022496       -1.2143692804        0.1560743812
 H          2.2434373869        0.7034412157       -0.8688990490
 H          2.2361863848       -2.1260428506       -0.0307740124
 H          1.9852634117       -1.4882193549       -2.6272112532
 H          0.8494800768       -2.6500423578       -1.9376175187
 H         -0.7001968873       -1.0440443835       -2.8338805008
 H          0.3922133658        0.2969330558       -2.5157973195
 H         -0.7691712539        0.6381186677       -0.5543053189
 H         -0.0378407044       -1.9717063996        0.6636299845
 H          0.5312872124       -0.3716266398        1.1372377039
 H         -1.5386063518       -3.0063903479       -1.3645652333
 H         -1.8119997945        2.3317248218        0.4802016840
 H         -3.7637201456        3.8613288141        1.4562792494
 H         -6.1407771013       -1.9748749002        0.0928219562
 H         -5.8802751562        2.5118284263        1.5097020353
 H          6.5069434093       -0.6608894933        0.0864822346
 H          7.7032661521        0.6373837113        0.1868980628
 H          6.6644193713        0.4985033610       -1.2398580575
 H          6.9106238699        3.0545978343        0.4912702140
 H          5.1742466785        3.3837877311        0.5924359870
 H          5.8848122812        2.8707277345       -0.9396496686
 H          6.6661155478        1.3853178433        2.4203202168
 H          4.9335753662        1.7434480033        2.4856529847
 H          5.4862069220        0.0749149067        2.2878040993
  48
        -73.17178938
 C          6.6980530924        0.3352805550       -0.2775454796
 C          5.6765294016        1.3641114525        0.2047313583
 C          5.7258641304        1.5225789519        1.7237400726
 C          5.9004070821        2.7102220467       -0.4846958120
 O          4.3365977215        0.9782977803       -0.2171157778
 C          3.7705090218       -0.1672565439        0.1893732763
 O          4.2772047713       -0.9955174792        0.9284738866
 N          2.5413826098       -0.2792759419       -0.3423611197
 C          1.6643096685       -1.4023593147       -0.0927525740
 C          1.2008463514       -2.0521018114       -1.3994476604
 C          0.0399524189       -1.1725597669       -1.8674654673
 C         -0.6110681935       -0.6107079760       -0.5853366971
 C          0.3543359291       -0.9568222285        0.5687495516
 N         -1.9260241399       -1.1606437456       -0.3544303934
 C         -2.2699263342       -2.4799758836       -0.3570719839
 N         -3.5235867523       -2.7075873835       -0.1058563426
 C         -4.0784817622       -1.4634190354        0.0885398809
 C         -3.0726582004       -0.4786270995       -0.0612693625
 C         -3.4197670587        0.8640634316        0.1053312816
 C         -2.8117364805        2.1457441447        0.0747844458
 C         -3.7948775989        3.0538446237        0.3428075715
 N         -4.9834456245        2.4160674959        0.5385391030
 C         -4.7935169353        1.0772620727        0.4048064058
 N         -5.7538626259        0.1567930184        0.5417444295
 C         -5.3959464747       -1.1004189389        0.3865252132
 H          2.2225565241        0.4679500974       -0.9392836537
 H          2.2347391605       -2.0852814773        0.5412591063
 H          2.0030991932       -2.1067044054       -2.1314467181
 H          0.8593277057       -3.0645239252       -1.1880668097
 H         -0.6816383757       -1.7305056233       -2.4616672371
 H          0.4110363667       -0.3525992327       -2.4799799619
 H         -0.7512833720        0.4674272949       -0.6672528137
 H         -0.0546750402       -1.7838762453        1.1486614244
 H          0.5107672634       -0.1163318365        1.2413229620
 H         -1.5589005022       -3.2576811718       -0.5534011915
 H         -1.7823910090        2.3756159607       -0.1133827001
 H         -3.7268997569        4.1214957128        0.4074704143
 H         -6.1707783285       -1.8436767066        0.5000808571
 H         -5.8649031722        2.8506420581        0.7537013989
 H          4.9705535368        2.2337729488        2.0501559509
 H          6.7056242981        1.8833022090        2.0197819134
 H          5.5400528324        0.5668062144        2.2078069430
 H          6.6269099836        0.2149756353       -1.3560752950
 H          6.5149670120       -0.6264753516        0.1956383659
 H          7.6985423389        0.6692573120       -0.0221346664
 H          5.8278104826        2.5916086128       -1.5619043843
 H          5.1464411919        3.4221366043       -0.1614871493
 H          6.8840283149        3.0912740574       -0.2321347928
  48
        -73.17175844
 C          5.6270353104        1.2258859585        1.9829936090
 C          5.6469490150        1.3040446712        0.4570446447
 C          5.8995458792        2.7391046771       -0.0057313789
 C          6.6915313300        0.3571388705       -0.1318469575
 O          4.3275249656        0.9948538258       -0.0777854234
 C          3.7491272831       -0.1989993450        0.1172962752
 O          4.2282347193       -1.1361237877        0.7348270763
 N          2.5440477787       -0.2225671602       -0.4770721305
 C          1.6590505292       -1.3662104240       -0.4354085185
 C          1.1819785119       -1.7537233718       -1.8372951760
 C          0.0231959163       -0.7955636800       -2.1203597604
 C         -0.6152502813       -0.4838280891       -0.7500781058
 C          0.3567585486       -1.0464193903        0.3094587856
 N         -1.9311183945       -1.0626929711       -0.6140428342
 C         -2.2885984739       -2.3496519231       -0.8873047086
 N         -3.5366864957       -2.6207569822       -0.6518404980
 C         -4.0721195924       -1.4454205934       -0.1773640105
 C         -3.0608908000       -0.4553933827       -0.1442125657
 C         -3.3888510211        0.8216988050        0.3165246236
 C         -2.7687226623        2.0781191544        0.5403805108
 C         -3.7336959144        2.9115194380        1.0275357656
 N         -4.9219736449        2.2505544765        1.1221147158
 C         -4.7504626093        0.9707152182        0.6988564491
 N         -5.7156191121        0.0456168059        0.6666005534
 C         -5.3758986263       -1.1502191526        0.2337373574
 H          2.2409134847        0.6147785021       -0.9495469220
 H          2.2274254070       -2.1598294311        0.0555290790
 H          1.9782590257       -1.6723493015       -2.5732498245
 H          0.8354204034       -2.7861162738       -1.8184487747
 H         -0.7058514507       -1.2262162553       -2.8044489607
 H          0.3953449922        0.1241086296       -2.5685743243
 H         -0.7499138855        0.5909822126       -0.6252381197
 H         -0.0533474636       -1.9662034934        0.7261086866
 H          0.5240176364       -0.3492838655        1.1276111967
 H         -1.5920615352       -3.0704136970       -1.2669951114
 H         -1.7432854907        2.3388396160        0.3721040630
 H         -3.6527078845        3.9405664267        1.3160087020
 H         -6.1539653716       -1.8984255706        0.2107106766
 H         -5.7920704680        2.6332071897        1.4517390045
 H          5.1299910797        3.3966514620        0.3881847423
 H          5.8772395336        2.7881215219       -1.0905564702
 H          6.8696335626        3.0716917119        0.3475695230
 H          4.8577469965        1.8837170225        2.3809084324
 H          6.5922758810        1.5293044981        2.3752852945
 H          5.4190825781        0.2081250895        2.3044859993
 H          6.4905056348       -0.6651124734        0.1794582918
 H          6.6686186033        0.4039857314       -1.2181384486
 H          7.6787304273        0.6440414978        0.2158250383
  48
        -73.17153729
 C          6.3069689001       -0.6505853384        1.2422922613
 C          5.5769338872       -0.8745952308       -0.0809340932
 C          6.3491501020       -0.2675259087       -1.2511533226
 C          5.3322171899       -2.3656863416       -0.3145414016
 O          4.2353724542       -0.3097400316       -0.0178667690
 C          4.0341388087        0.9961763187        0.1793449003
 O          4.9075164139        1.8402893897        0.3251529402
 N          2.7292395636        1.3180804769        0.2164507537
 C          1.6056889364        0.4289283503        0.0025057482
 C          0.7977478576        0.8331558298       -1.2475690053
 C         -0.4157403075        1.5874719102       -0.7098676665
 C         -0.7584130365        0.8306294770        0.5797197275
 C          0.6118004588        0.5087629546        1.1827623296
 N         -1.5286290271       -0.3574380184        0.2810403805
 C         -1.0973291458       -1.6268417821        0.0387444639
 N         -2.0437700187       -2.4678149960       -0.2555816864
 C         -3.2024092270       -1.7264517534       -0.2266088016
 C         -2.8831905335       -0.3883757549        0.1023944692
 C         -3.9131683831        0.5511156611        0.1719397603
 C         -4.0887888506        1.9356785197        0.4248863440
 C         -5.4260719586        2.1864788781        0.3158103641
 N         -6.0970958921        1.0396914952        0.0081741091
 C         -5.2050483402        0.0194052465       -0.0915171904
 N         -5.5219815814       -1.2443847685       -0.3934328097
 C         -4.5283407333       -2.1054649936       -0.4617471944
 H          2.5321104029        2.3018324293        0.3301939655
 H          2.0286818350       -0.5695395880       -0.1071444288
 H          1.3971749645        1.4346164938       -1.9272997562
 H          0.4731111468       -0.0607120208       -1.7800705003
 H         -1.2491106376        1.5965880190       -1.4102478147
 H         -0.1547395761        2.6156098053       -0.4640658225
 H         -1.3687529507        1.4301317739        1.2595186699
 H          0.5912159636       -0.4057622567        1.7706677115
 H          0.9078578456        1.3221488057        1.8436691397
 H         -0.0658408970       -1.9102732876        0.0918676171
 H         -3.3270210679        2.6546173847        0.6487704001
 H         -5.9504990072        3.1133171584        0.4366890365
 H         -4.7857872335       -3.1243980000       -0.7095511056
 H         -7.0894962218        0.9489829835       -0.1293674962
 H          6.4994258531        0.7973080390       -1.0904184000
 H          5.7957742266       -0.4085389759       -2.1768350537
 H          7.3165557813       -0.7515631541       -1.3376218751
 H          7.2745524371       -1.1409081794        1.2100769887
 H          5.7256908092       -1.0623083983        2.0641770429
 H          6.4546393675        0.4127572675        1.4148682292
 H          4.7804672962       -2.5117005779       -1.2388678854
 H          6.2819095899       -2.8855419429       -0.3801014328
 H          4.7538356461       -2.7809531407        0.5058801003
  48
        -73.17143794
 C          6.7510396260       -0.9794202172        0.5209207456
 C          5.9279201917       -0.0030511744       -0.3195975134
 C          6.4435493851        1.4246706025       -0.1455482609
 C          5.9364011638       -0.4187301968       -1.7899348915
 O          4.5831678145       -0.1215621440        0.2287404667
 C          3.5593197276        0.5968390544       -0.2543233732
 O          3.6141385353        1.3952196064       -1.1752841145
 N          2.4403225297        0.3132980630        0.4344128190
 C          1.1545872054        0.9137531727        0.1459840150
 C          0.5231689895        1.5092183155        1.4180437210
 C         -0.5511718529        0.5181067227        1.8946458352
 C         -0.4745576424       -0.6863512524        0.9404029417
 C          0.1497388241       -0.1333641636       -0.3459362006
 N         -1.7504159444       -1.3201136114        0.7243246139
 C         -2.0231572830       -2.6287635712        0.9910472671
 N         -3.2369141263       -2.9952927559        0.7170196406
 C         -3.8430949001       -1.8625754260        0.2264281112
 C         -2.9127926993       -0.7933272185        0.2233786561
 C         -3.3432286869        0.4532713999       -0.2446507545
 C         -2.8364338269        1.7650290504       -0.4432942189
 C         -3.8575228885        2.5099941096       -0.9576205771
 N         -4.9765824597        1.7441638013       -1.0921622390
 C         -4.7017973086        0.4832238536       -0.6678304522
 N         -5.5853002088       -0.5200999262       -0.6656928556
 C         -5.1552142282       -1.6816283598       -0.2221595194
 H          2.5103156834       -0.3666395328        1.1756238691
 H          1.3564036786        1.6709126796       -0.6156894380
 H          1.2911624943        1.6635927434        2.1732439644
 H          0.0835132298        2.4794738966        1.1965054056
 H         -1.5430834545        0.9631622844        1.8341757395
 H         -0.3900489824        0.2082018378        2.9250969296
 H          0.1768045947       -1.4580618419        1.3613677711
 H         -0.6167619983        0.3415726968       -0.9552365553
 H          0.6316468978       -0.9066758091       -0.9411516451
 H         -1.2823764497       -3.2902636276        1.3964269000
 H         -1.8474630822        2.1202815523       -0.2397357340
 H         -3.8609552529        3.5442634873       -1.2385670569
 H         -5.8646466098       -2.4953992058       -0.2182394496
 H         -5.8677141154        2.0461612084       -1.4480960298
 H          5.8379117842        2.1166851255       -0.7257050864
 H          7.4719201708        1.4835877660       -0.4872211030
 H          6.3987274230        1.7124732944        0.9022748728
 H          6.7077302585       -0.6948887916        1.5682800490
 H          7.7836137631       -0.9669029866        0.1889858765
 H          6.3536904535       -1.9849539430        0.4168623726
 H          5.5375728089       -1.4250319687       -1.8959334418
 H          5.3270777141        0.2638885041       -2.3774086599
 H          6.9535750174       -0.3979161400       -2.1675404260
  48
        -73.17138580
 C          6.4495681902        1.3897722867        0.3212094823
 C          5.9476029493        0.0953275523       -0.3168629599
 C          5.9977319009        0.1741972718       -1.8419728265
 C          6.7534233917       -1.1021868066        0.1870766252
 O          4.5900328061       -0.1892626050        0.1288162516
 C          3.5730082042        0.6457638986       -0.1284522464
 O          3.6448829025        1.6959299913       -0.7452539485
 N          2.4385471743        0.1551165238        0.3997511772
 C          1.1596044299        0.8276680969        0.3072891237
 C          0.5512201462        1.0600584249        1.7028497478
 C         -0.5068610787       -0.0342610471        1.9189325344
 C         -0.4657665092       -0.9235191816        0.6635371842
 C          0.1329165367       -0.0347480069       -0.4330171591
 N         -1.7516215844       -1.4712587349        0.3129652414
 C         -2.0255656643       -2.8026495107        0.2088985316
 N         -3.2490516041       -3.0790823649       -0.1216402070
 C         -3.8613706395       -1.8551873048       -0.2557422430
 C         -2.9244150920       -0.8267947047        0.0151649297
 C         -3.3601630726        0.5002542882       -0.0695866072
 C         -2.8506256635        1.8157138543        0.0935971299
 C         -3.8818858122        2.6734684990       -0.1571061581
 N         -5.0096369772        1.9743943707       -0.4675294389
 C         -4.7305289460        0.6456498368       -0.4252549480
 N         -5.6198958144       -0.3191040565       -0.6805416842
 C         -5.1847011275       -1.5576871089       -0.5962107786
 H          2.4989160783       -0.7197614516        0.8972864034
 H          1.3646326389        1.7626221287       -0.2198888179
 H          1.3328783006        1.0204160246        2.4587485516
 H          0.1006787563        2.0493146567        1.7509371658
 H         -1.4994267370        0.4015825770        2.0204300475
 H         -0.3093928344       -0.6188822725        2.8150594873
 H          0.1888488248       -1.7832033942        0.8346679408
 H         -0.6429618384        0.5954501002       -0.8634999618
 H          0.5910369859       -0.6125982921       -1.2333878040
 H         -1.2782191460       -3.5505112103        0.3900590104
 H         -1.8531845494        2.1007511351        0.3573186448
 H         -3.8869068996        3.7449679273       -0.1349280618
 H         -5.8986431837       -2.3408685699       -0.8022539754
 H         -5.9093407411        2.3622191151       -0.6957157653
 H          5.6050922417       -0.7421120791       -2.2768773133
 H          7.0248557923        0.3094566498       -2.1651179469
 H          5.4026285048        1.0129456108       -2.1949535248
 H          7.4854291009        1.5543993496        0.0427253464
 H          6.3775318292        1.3245629205        1.4044385057
 H          5.8533662598        2.2326044092       -0.0201727437
 H          6.3626614279       -2.0195323243       -0.2438515076
 H          7.7940806750       -0.9883700568       -0.0967878387
 H          6.6822072299       -1.1683549825        1.2688981779
  48
        -73.17131651
 C          6.8631088519        0.3444859434       -0.3832156326
 C          5.9610492437        0.9566775266        0.6871696519
 C          6.0313554200        0.1630298229        1.9910156707
 C          6.3266777441        2.4215371476        0.9275319765
 O          4.5856378789        1.0182173824        0.2103367129
 C          3.8993421266       -0.0865753458       -0.1131070207
 O          4.3131237805       -1.2326140828       -0.0537051410
 N          2.6652863021        0.2532589797       -0.5264203778
 C          1.6557862565       -0.7050737438       -0.9082794391
 C          1.0884786317       -0.4176263817       -2.3090766184
 C         -0.3582494131       -0.8899443069       -2.2371552285
 C         -0.7949185771       -0.4350621946       -0.8392905214
 C          0.4391489381       -0.6893623055        0.0453379640
 N         -1.9785024911       -1.1027915260       -0.3621916818
 C         -2.1578697163       -2.4465993546       -0.2135418184
 N         -3.3293128015       -2.7846848155        0.2333823248
 C         -4.0011803002       -1.5961543062        0.4052297405
 C         -3.1530273343       -0.5261703465        0.0326213382
 C         -3.6376150083        0.7800212566        0.1359014486
 C         -3.2044147262        2.1117298584       -0.0933072471
 C         -4.2458751236        2.9275641009        0.2424595737
 N         -5.3066674806        2.1849019297        0.6676926882
 C         -4.9728374263        0.8687901837        0.6178131903
 N         -5.7847103638       -0.1341634254        0.9690795457
 C         -5.3004448137       -1.3534002871        0.8630845677
 H          2.4290605649        1.2344232176       -0.5208374708
 H          2.1530025530       -1.6782245072       -0.8805319277
 H          1.1190956539        0.6561481491       -2.4947309520
 H          1.6548557011       -0.9191555450       -3.0894784274
 H         -0.4065379028       -1.9765493148       -2.3050511409
 H         -0.9804903782       -0.4644926665       -3.0217030516
 H         -1.0273411362        0.6310870644       -0.8615923525
 H          0.3419483823       -1.6458266349        0.5567164198
 H          0.5517222890        0.0822303621        0.8047956628
 H         -1.3917321678       -3.1595456411       -0.4464151156
 H         -2.2501046859        2.4347042896       -0.4573514470
 H         -4.3031923139        3.9971626106        0.2063290283
 H         -5.9553534882       -2.1631591992        1.1477325195
 H         -6.1969597519        2.5387125218        0.9746457395
 H          7.0450072635        0.1881468465        2.3777190232
 H          5.7446596010       -0.8714084900        1.8175615378
 H          5.3578603258        0.5945050393        2.7279827993
 H          6.7746435457        0.9046043021       -1.3112106283
 H          6.5786061826       -0.6884965981       -0.5684492414
 H          7.8948549079        0.3716010118       -0.0478665954
 H          5.6557227553        2.8548400895        1.6636602773
 H          7.3469216580        2.4893249246        1.2894121009
 H          6.2363792305        2.9825216055        0.0018612047
  48
        -73.17130193
 C          6.8526426109        0.3770922669       -0.3884533702
 C          5.9473849614        0.9792590319        0.6849418418
 C          6.0306207422        0.1862623359        1.9884032840
 C          6.2980101530        2.4479423070        0.9244286248
 O          4.5697961869        1.0257758233        0.2125539581
 C          3.8949502934       -0.0865095940       -0.1092807760
 O          4.3219291218       -1.2277974286       -0.0520516554
 N          2.6554174021        0.2393784105       -0.5172994687
 C          1.6572415491       -0.7302273649       -0.9008544082
 C          1.0939274073       -0.4521244636       -2.3055830614
 C         -0.3540839155       -0.9212339760       -2.2359536291
 C         -0.7927930482       -0.4605472936       -0.8408283099
 C          0.4365224584       -0.7233478524        0.0474527834
 N         -1.9831417125       -1.1176485472       -0.3659591063
 C         -2.1756191082       -2.4598228282       -0.2185824014
 N         -3.3503326654       -2.7868514727        0.2281364480
 C         -4.0103971593       -1.5919212219        0.4015158656
 C         -3.1518877185       -0.5299496105        0.0297131757
 C         -3.6234911259        0.7808086470        0.1348612640
 C         -3.1773351710        2.1084795424       -0.0930285813
 C         -4.2102521519        2.9341604442        0.2451021721
 N         -5.2777467897        2.2015415262        0.6708118179
 C         -4.9572604835        0.8822255813        0.6182674392
 N         -5.7787314735       -0.1130599036        0.9690605654
 C         -5.3067434836       -1.3368843295        0.8609022220
 H          2.4087181918        1.2179598420       -0.5126108470
 H          2.1643566375       -1.6980370237       -0.8675405177
 H          1.1271047094        0.6202189106       -2.4989237721
 H          1.6621387895       -0.9598781097       -3.0806295035
 H         -0.4046312884       -2.0079238631       -2.3002912197
 H         -0.9731559182       -0.4969485342       -3.0236063278
 H         -1.0162855984        0.6074781622       -0.8659036184
 H          0.3363358714       -1.6854027179        0.5476744180
 H          0.5456072174        0.0399144165        0.8157240602
 H         -1.4167293864       -3.1801561722       -0.4522396954
 H         -2.2203696358        2.4224461888       -0.4579763571
 H         -4.2569020340        4.0043425202        0.2106335534
 H         -5.9692890035       -2.1404589935        1.1453890123
 H         -6.1640161787        2.5636040003        0.9799259147
 H          5.7540993434       -0.8510821329        1.8158225124
 H          5.3553771014        0.6106331040        2.7278873721
 H          7.0453534099        0.2218736718        2.3714354629
 H          7.8851331604        0.4157490043       -0.0565428194
 H          6.7548475165        0.9361360888       -1.3161540917
 H          6.5790814962       -0.6590266586       -0.5726999672
 H          7.3186791273        2.5266109960        1.2829226796
 H          6.1986609837        3.0082032466       -0.0007446880
 H          5.6249568712        2.8738649973        1.6629531554
  48
        -73.17127673
 C          6.8308615415        0.4342200055       -0.3815784099
 C          5.9108941036        1.0273827098        0.6843073884
 C          6.0075105796        0.2481517159        1.9951333872
 C          6.2308543389        2.5050510768        0.9110067915
 O          4.5335819309        1.0411347812        0.2089226380
 C          3.8830071492       -0.0878591132       -0.1047536957
 O          4.3341501811       -1.2192952566       -0.0376486126
 N          2.6374773828        0.2081153298       -0.5171948117
 C          1.6622065832       -0.7859971591       -0.8978908640
 C          1.1009419294       -0.5283089883       -2.3081839008
 C         -0.3509012032       -0.9859405346       -2.2359980177
 C         -0.7855959530       -0.5139418511       -0.8437517476
 C          0.4376897438       -0.7977660547        0.0452130334
 N         -1.9885724325       -1.1478481257       -0.3693935393
 C         -2.2090175171       -2.4860537476       -0.2251126017
 N         -3.3903582679       -2.7895444216        0.2205497488
 C         -4.0255037520       -1.5816395418        0.3965149307
 C         -3.1448881068       -0.5368745858        0.0277215539
 C         -3.5889723507        0.7832266726        0.1365191748
 C         -3.1147902348        2.1019716449       -0.0864615859
 C         -4.1304993489        2.9480918747        0.2533119597
 N         -5.2137481028        2.2366069214        0.6751666194
 C         -4.9208290356        0.9110452840        0.6190232095
 N         -5.7632804868       -0.0677900783        0.9662262980
 C         -5.3166814805       -1.3008911984        0.8554460325
 H          2.3699614623        1.1811903346       -0.5207414823
 H          2.1905895747       -1.7418554954       -0.8539873962
 H          1.1421586527        0.5403213573       -2.5195742296
 H          1.6671527147       -1.0522056116       -3.0738720545
 H         -0.4102744578       -2.0724851813       -2.2940627918
 H         -0.9661953074       -0.5611686441       -3.0263838417
 H         -0.9888317296        0.5580720101       -0.8717533071
 H          0.3328322603       -1.7719089553        0.5205898607
 H          0.5443512109       -0.0538628270        0.8325204492
 H         -1.4655425071       -3.2217845707       -0.4603693030
 H         -2.1508732073        2.3970447517       -0.4488479962
 H         -4.1546042672        4.0191050232        0.2224802079
 H         -5.9960566774       -2.0912550277        1.1371832778
 H         -6.0925428727        2.6162040473        0.9844158705
 H          5.3220334865        0.6652632838        2.7293268116
 H          7.0204283287        0.3081293100        2.3799092687
 H          5.7527716837       -0.7961720769        1.8314164951
 H          6.7242470095        0.9829321642       -1.3144603737
 H          6.5788975465       -0.6088356332       -0.5572584838
 H          7.8614858829        0.4967831293       -0.0475212981
 H          7.2491445406        2.6079099213        1.2701362058
 H          6.1214663895        3.0547473819       -0.0193465812
 H          5.5481239615        2.9237022644        1.6447667543
  48
        -73.17122240
 C          6.1431833338        2.2558786238        1.5126863263
 C          5.8457981892        0.8693562145        0.9414191751
 C          6.7968757323        0.5455820291       -0.2096300392
 C          5.9215263715       -0.1924600926        2.0375681868
 O          4.4798299954        0.9851641790        0.4475127536
 C          3.8513380688       -0.0426403243       -0.1398626312
 O          4.3118059338       -1.1577405681       -0.3206313474
 N          2.6179698520        0.3380424638       -0.5180704872
 C          1.6609397897       -0.5495525407       -1.1350418918
 C          1.0963751442        0.0388355338       -2.4410621684
 C         -0.3568214208       -0.4205733138       -2.4795945191
 C         -0.7863870514       -0.3075022794       -1.0126838200
 C          0.4368927980       -0.8130888755       -0.2289749971
 N         -1.9913905725       -1.0319955704       -0.7009529252
 C         -2.2273231033       -2.3596162212       -0.9052391815
 N         -3.3976306177       -2.7627347308       -0.5127440884
 C         -4.0074942078       -1.6403039108       -0.0011879055
 C         -3.1237930726       -0.5405707239       -0.1140748958
 C         -3.5435851060        0.7069900744        0.3538957350
 C         -3.0580324289        2.0357378556        0.4653855761
 C         -4.0481149444        2.7683843264        1.0536179021
 N         -5.1254831081        1.9765701602        1.3173270101
 C         -4.8550942319        0.7106776370        0.9042326716
 N         -5.6992113934       -0.3205937117        1.0151309629
 C         -5.2767649645       -1.4831274623        0.5652543734
 H          2.3362857518        1.2813675376       -0.2964331573
 H          2.2065062798       -1.4777717799       -1.3232155711
 H          1.1397784695        1.1268931741       -2.3902710385
 H          1.6602955329       -0.2864730017       -3.3113621951
 H         -0.4185451026       -1.4585448954       -2.8052849245
 H         -0.9726345296        0.1880101974       -3.1384146126
 H         -0.9807902402        0.7391966968       -0.7717469173
 H          0.3337985625       -1.8790131052       -0.0305622190
 H          0.5415587937       -0.3054154900        0.7281461677
 H         -1.5032571505       -3.0119101625       -1.3520551656
 H         -2.1037509502        2.4106545086        0.1551050473
 H         -4.0573065031        3.8104298719        1.3041930212
 H         -5.9584056569       -2.3155473764        0.6546399607
 H         -5.9867852731        2.2662316209        1.7489844305
 H          6.5627543237       -0.4305768123       -0.6274436554
 H          7.8189455568        0.5372894176        0.1550700063
 H          6.7036685605        1.2940859592       -0.9930592765
 H          6.0513345309        3.0055496444        0.7321181156
 H          7.1507324926        2.2778916830        1.9137433979
 H          5.4371581485        2.4895918643        2.3043499319
 H          6.9254064983       -0.2192073575        2.4488991182
 H          5.2166757494        0.0399110724        2.8325845201
 H          5.6802671086       -1.1713192095        1.6301753656
  48
        -73.17119241
 C          5.7571254480        1.7278107564        0.3140094988
 C          4.5943409034        1.6655362321       -0.6749352265
 C          3.8829551916        3.0165140260       -0.7557986678
 C          5.0660000852        1.2223124174       -2.0587519537
 O          3.5627279611        0.7625186930       -0.1814124199
 C          3.8031837269       -0.5351834001        0.0209625040
 O          4.8700789952       -1.1032983870       -0.1670224275
 N          2.7206077264       -1.1960139400        0.4690154544
 C          1.4146973443       -0.6394517936        0.7427485366
 C          1.0354743561       -0.7700861481        2.2295777252
 C         -0.4781718799       -0.9481770481        2.2305160392
 C         -0.7197782250       -1.8456978237        1.0106280518
 C          0.3002448854       -1.3691823231       -0.0388137436
 N         -2.0805414276       -1.8207755119        0.5385329710
 C         -2.9073874696       -2.9041970250        0.5037523327
 N         -4.0999867376       -2.6607581411        0.0554159172
 C         -4.0968434081       -1.3173425988       -0.2380951760
 C         -2.8240773707       -0.7713238910        0.0636084813
 C         -2.6212258492        0.5933203809       -0.1706503168
 C         -1.5964027508        1.5686097950       -0.0476679573
 C         -2.1203556078        2.7509372032       -0.4830398218
 N         -3.4142463974        2.5759856877       -0.8729303591
 C         -3.7558438634        1.2730502170       -0.6964913582
 N         -4.9587714096        0.7648904894       -0.9826789466
 C         -5.1237009366       -0.5200263078       -0.7533350322
 H          2.8614161705       -2.1783253190        0.6561594950
 H          1.4669201209        0.4095867268        0.4501041347
 H          1.5135588669       -1.6588444622        2.6427126879
 H          1.3561321716        0.0919401981        2.8091866645
 H         -0.9822492650        0.0069163632        2.0912697779
 H         -0.8451764553       -1.4011964394        3.1493834629
 H         -0.5127423900       -2.8850250811        1.2832250430
 H         -0.1807266255       -0.6966178304       -0.7464553587
 H          0.7090181742       -2.2064057686       -0.6016487222
 H         -2.5819879261       -3.8747230632        0.8243807414
 H         -0.5999040014        1.4241639971        0.3150188411
 H         -1.6532243367        3.7136623481       -0.5416424224
 H         -6.0930198490       -0.9366614799       -0.9823329032
 H         -4.0307692275        3.2847003694       -1.2328171904
 H          4.5730889910        3.7711642609       -1.1172986598
 H          3.5208714361        3.3047043930        0.2268574345
 H          3.0373449936        2.9506419889       -1.4344279585
 H          5.3958374993        2.0152723543        1.2986795930
 H          6.4839712150        2.4584943037       -0.0258218094
 H          6.2402664172        0.7564816950        0.3874779031
 H          5.7753383074        1.9448361415       -2.4493437210
 H          5.5491844896        0.2501048469       -1.9977102932
 H          4.2190907520        1.1509280469       -2.7374207178
  48
        -73.17113855
 C          4.0225371335        3.1153422134        0.1915089987
 C          4.6858389156        1.7979814935       -0.2113554898
 C          5.1541029918        1.8544053200       -1.6644538889
 C          5.8420595801        1.4674752932        0.7310473136
 O          3.6199040543        0.8154695176       -0.0625723978
 C          3.8115976685       -0.4759722063       -0.3424037164
 O          4.8623401370       -0.9795588738       -0.7147734680
 N          2.6938749509       -1.2079414136       -0.1832444516
 C          1.4202293793       -0.7372276850        0.3149371380
 C          1.1667631061       -1.1800133244        1.7694116143
 C         -0.3406621874       -1.3859899200        1.8576210912
 C         -0.6833265482       -2.0098405101        0.4991632213
 C          0.2428337913       -1.3020571153       -0.5062205551
 N         -2.0790305450       -1.9116292060        0.1565470350
 C         -2.9045948321       -2.9781314085       -0.0428579767
 N         -4.1307434962       -2.6671511340       -0.3299375094
 C         -4.1533206111       -1.2921530966       -0.3288834909
 C         -2.8606745648       -0.7992519039       -0.0204928987
 C         -2.6793607688        0.5874517120        0.0286131967
 C         -1.6492237342        1.5329547447        0.2766392401
 C         -2.2091200618        2.7709376578        0.1503445705
 N         -3.5304254769        2.6591350686       -0.1630682451
 C         -3.8542917528        1.3424308385       -0.2458534068
 N         -5.0758016529        0.8845496589       -0.5377937671
 C         -5.2196971033       -0.4224387548       -0.5782330246
 H          2.8071220312       -2.2020745355       -0.3197537243
 H          1.4533917723        0.3508485832        0.2468933224
 H          1.6820549520       -2.1243670262        1.9485504500
 H          1.5330046587       -0.4493537354        2.4863546145
 H         -0.8575321972       -0.4339447691        1.9674632929
 H         -0.6261634853       -2.0309785088        2.6862847783
 H         -0.4524610448       -3.0790937610        0.5268172535
 H         -0.2977909901       -0.5022235318       -1.0085943985
 H          0.5985898714       -1.9919709082       -1.2690241189
 H         -2.5525272018       -3.9884019227        0.0348188627
 H         -0.6260369564        1.3332761454        0.5188577885
 H         -1.7500066416        3.7326461901        0.2641781926
 H         -6.2037515181       -0.7981271173       -0.8149276333
 H         -4.1755075745        3.4166385482       -0.3114023183
 H          5.8893079235        2.6445139070       -1.7783289050
 H          4.3110104753        2.0542108483       -2.3218784617
 H          5.6055391864        0.9077124451       -1.9513116557
 H          3.1841668112        3.3255517355       -0.4663475027
 H          4.7431496612        3.9229005563        0.1205628693
 H          3.6579248531        3.0504197819        1.2125748627
 H          5.4841515030        1.4076172982        1.7562408237
 H          6.2876080261        0.5137765707        0.4585787472
 H          6.5986713369        2.2424753549        0.6630372580
  48
        -73.17110878
 C          4.1239822827        3.0870941502        0.3061630289
 C          4.7547113320        1.7700027646       -0.1467669454
 C          5.2485978301        1.8783216101       -1.5884017157
 C          5.8844971615        1.3621248748        0.7974397084
 O          3.6584789763        0.8139003078       -0.0589011662
 C          3.8181035627       -0.4685595455       -0.3942674807
 O          4.8593588533       -0.9848236715       -0.7757717587
 N          2.6772039009       -1.1737784070       -0.2851616763
 C          1.4162109314       -0.6910247262        0.2346240411
 C          1.1852099267       -1.1313814570        1.6944566082
 C         -0.3177582884       -1.3588457143        1.8045652537
 C         -0.6736615197       -1.9795201416        0.4482349230
 C          0.2228736269       -1.2486084673       -0.5670403427
 N         -2.0765156665       -1.9016224447        0.1307737965
 C         -2.8885639212       -2.9795003633       -0.0629141356
 N         -4.1247425808       -2.6856799437       -0.3238692637
 C         -4.1692575317       -1.3113025483       -0.3092534074
 C         -2.8790182385       -0.8004145076       -0.0207877182
 C         -2.7188876666        0.5885594235        0.0385420803
 C         -1.6994615684        1.5482986000        0.2763962380
 C         -2.2817521496        2.7781428724        0.1738494854
 N         -3.6069551388        2.6478171346       -0.1151636484
 C         -3.9109552828        1.3269217876       -0.2055962237
 N         -5.1303658774        0.8520933359       -0.4788632229
 C         -5.2539953433       -0.4566058659       -0.5296749427
 H          2.7668958199       -2.1653226117       -0.4539652828
 H          1.4570472905        0.3968234647        0.1646494904
 H          1.7167498523       -2.0672658344        1.8707896636
 H          1.5502365182       -0.3928095562        2.4038403132
 H         -0.8462164601       -0.4149821398        1.9284000098
 H         -0.5808398614       -2.0124209028        2.6339688523
 H         -0.4244225618       -3.0448824041        0.4640458903
 H         -0.3355013402       -0.4430254009       -1.0398633881
 H          0.5630366173       -1.9214490848       -1.3518873902
 H         -2.5191508574       -3.9846647542       -0.0011640520
 H         -0.6683969337        1.3633492231        0.4963898689
 H         -1.8363107304        3.7460913726        0.2888120130
 H         -6.2360780043       -0.8458178304       -0.7521289511
 H         -4.2666613058        3.3962288810       -0.2437945183
 H          6.0087513382        2.6500488443       -1.6545225180
 H          4.4228830740        2.1334418924       -2.2487252576
 H          5.6764043307        0.9324092087       -1.9117678914
 H          3.3027532246        3.3520200905       -0.3535127848
 H          4.8688929149        3.8751640878        0.2826177179
 H          3.7413824116        2.9871447177        1.3177784227
 H          6.3079492541        0.4099716787        0.4869340120
 H          6.6636254509        2.1173253907        0.7792708731
 H          5.5065372387        1.2638784662        1.8124595605
  48
        -73.17098869
 C          6.6156577050        1.8578837966        0.0890159151
 C          5.7350471668        0.8055414805        0.7630843739
 C          6.4135593169       -0.5632107302        0.7341594435
 C          5.3944326156        1.2244445151        2.1925265585
 O          4.5304142112        0.7862381070       -0.0561755252
 C          3.4995294630       -0.0244860417        0.2224115689
 O          3.4371790706       -0.8128860859        1.1516625140
 N          2.5235763942        0.1563732942       -0.6838807675
 C          1.2723163807       -0.5692261902       -0.6682148068
 C          1.0248231114       -1.3048351605       -1.9990777111
 C         -0.0486662784       -0.4921572338       -2.7235666715
 C         -0.9209079253        0.0859697944       -1.6105011571
 C          0.0762838097        0.3875784446       -0.4786149223
 N         -1.9578820329       -0.8208570719       -1.1621109712
 C         -2.1466130918       -2.1456177823       -1.4162399184
 N         -3.1833943011       -2.6635556408       -0.8279708922
 C         -3.7442875793       -1.6292586620       -0.1152584314
 C         -2.9737341084       -0.4616644798       -0.3195702484
 C         -3.3675470629        0.7217621801        0.3072525638
 C         -2.9490751499        2.0730581781        0.4094779856
 C         -3.8459415193        2.6993091495        1.2257506014
 N         -4.8014216019        1.8186278396        1.6398981452
 C         -4.5409068550        0.5987694745        1.1003967323
 N         -5.2789852031       -0.4983742906        1.3016166168
 C         -4.8812156744       -1.5997361607        0.6995112052
 H          2.6851593556        0.8352452660       -1.4126831070
 H          1.3592331110       -1.2721663027        0.1640385800
 H          1.9423031192       -1.3802698569       -2.5787212511
 H          0.6759111848       -2.3152378371       -1.7930341286
 H         -0.6207965652       -1.0834774164       -3.4348006825
 H          0.4093136685        0.3367567010       -3.2615758118
 H         -1.4351840716        0.9965751021       -1.9332176936
 H         -0.3868554586        0.2670270938        0.4987775229
 H          0.4244596030        1.4160673524       -0.5610474712
 H         -1.5079075057       -2.7172919331       -2.0575140808
 H         -2.0946013576        2.5212443924       -0.0546914861
 H         -3.8689601581        3.7228386205        1.5427378829
 H         -5.4780654491       -2.4845235162        0.8631382867
 H         -5.5752194517        2.0230546198        2.2494804121
 H          7.3465302886       -0.5183642788        1.2866574743
 H          6.6207794246       -0.8560160416       -0.2925650036
 H          5.7691373124       -1.3116909577        1.1890930432
 H          7.5516247514        1.9515172425        0.6291390537
 H          6.1074678602        2.8177907369        0.0833463200
 H          6.8214261782        1.5669847574       -0.9370183065
 H          6.3068333475        1.3066808662        2.7742801484
 H          4.8855780940        2.1856184820        2.1892789035
 H          4.7451263425        0.4856400007        2.6561601123
  48
        -73.17082902
 C          6.2314308900       -1.2480557607        0.9666713343
 C          5.8516410140        0.1137050719        0.3845536405
 C          6.2103008026        1.2340797193        1.3594116332
 C          6.5230305751        0.3240105302       -0.9718279658
 O          4.4065498356        0.0293910978        0.2216950734
 C          3.6937368717        1.0541457084       -0.2537390784
 O          4.1443647503        2.1287590125       -0.6264929125
 N          2.3743521704        0.7938703012       -0.2710519874
 C          1.7493550829       -0.4715772479        0.0619185996
 C          1.4514008438       -1.3041152946       -1.1910594858
 C          0.1587079460       -0.7000824851       -1.7411069977
 C         -0.6239716478       -0.1872858660       -0.5133473988
 C          0.3651000030       -0.2390859966        0.6724634064
 N         -1.8037504012       -0.9767850864       -0.2485274354
 C         -1.8741060781       -2.3359317494       -0.1654885677
 N         -3.0588414857       -2.7960051702        0.1012564658
 C         -3.8557667785       -1.6802213591        0.2162225814
 C         -3.0681175184       -0.5238088340        0.0008976908
 C         -3.6813827381        0.7285623318        0.0806632340
 C         -3.3446865264        2.1019810051       -0.0358536382
 C         -4.4934396533        2.8077800085        0.1767960118
 N         -5.5300578831        1.9567489023        0.4196230512
 C         -5.0725957519        0.6781571169        0.3713107588
 N         -5.8283059949       -0.4070144250        0.5702871942
 C         -5.2222958917       -1.5730728247        0.4941254870
 H          1.8001628483        1.5047835343       -0.6980894985
 H          2.4242713657       -0.9863057148        0.7462268826
 H          2.2682985394       -1.2592557088       -1.9079606377
 H          1.3034359444       -2.3435115277       -0.9012334790
 H         -0.4257595874       -1.4235751098       -2.3067954784
 H          0.3881079719        0.1335078566       -2.4032883377
 H         -0.9804700733        0.8290874220       -0.6834972459
 H          0.1101759283       -1.0797491841        1.3173553430
 H          0.3362803343        0.6688393575        1.2703405352
 H         -1.0190030719       -2.9650087690       -0.3127172104
 H         -2.3818254239        2.5231602366       -0.2444176307
 H         -4.6427444835        3.8690752117        0.1713825575
 H         -5.8320616176       -2.4490388965        0.6570305390
 H         -6.4826731908        2.2176341382        0.6106819604
 H          5.6955311916        1.0854701620        2.3058936253
 H          5.9186026255        2.1978180328        0.9489604234
 H          7.2814684047        1.2343765275        1.5335647471
 H          7.3046626972       -1.2944144577        1.1168260537
 H          5.9305941915       -2.0393153772        0.2861511856
 H          5.7307819869       -1.3983835816        1.9188545824
 H          7.6011433902        0.3177643586       -0.8481508687
 H          6.2386232277       -0.4709855141       -1.6572996753
 H          6.2216432766        1.2787868564       -1.3959631419
  48
        -73.17082101
 C          6.2530399697       -1.3503655030        0.7359920488
 C          5.8726288040        0.0562185215        0.2731152492
 C          6.3154342017        1.0980995924        1.2990860357
 C          6.4671634325        0.3473990087       -1.1040677544
 O          4.4189758830        0.0132784682        0.1934617711
 C          3.7048753071        1.0829795783       -0.1671605467
 O          4.1583824850        2.1703373845       -0.4968472093
 N          2.3809614132        0.8508334269       -0.1156164838
 C          1.7566941106       -0.4265250558        0.1721102033
 C          1.4699951533       -1.2203386966       -1.1083961356
 C          0.1789401929       -0.6035530172       -1.6472028284
 C         -0.6148471455       -0.1361371973       -0.4081808239
 C          0.3686195757       -0.2159020040        0.7807370556
 N         -1.7883603370       -0.9454761269       -0.1776263049
 C         -1.8351038941       -2.3057889796       -0.0958001282
 N         -3.0203541473       -2.7892304749        0.1226203300
 C         -3.8436983993       -1.6896071045        0.2006464155
 C         -3.0713974719       -0.5177682362        0.0146046110
 C         -3.7138165628        0.7216588166        0.0614563160
 C         -3.4017965534        2.1013920225       -0.0490194044
 C         -4.5733008060        2.7834985789        0.1098311135
 N         -5.6011437724        1.9117258081        0.3131193115
 C         -5.1149429893        0.6430385004        0.2922391160
 N         -5.8556631245       -0.4569105030        0.4645869503
 C         -5.2227106893       -1.6102121702        0.4198664789
 H          1.7976307589        1.5952125299       -0.4660573805
 H          2.4286303457       -0.9624817284        0.8435519113
 H          2.2918053660       -1.1491821994       -1.8175668354
 H          1.3246710680       -2.2692111738       -0.8536238498
 H         -0.3984988636       -1.3104322647       -2.2406005971
 H          0.4095756221        0.2529501542       -2.2789512267
 H         -0.9804225579        0.8813882271       -0.5485862122
 H          0.1138207842       -1.0737902212        1.4024087690
 H          0.3333239263        0.6756819004        1.4023578182
 H         -0.9621194953       -2.9174108057       -0.2072907361
 H         -2.4403532491        2.5423045703       -0.2199235857
 H         -4.7444499931        3.8413161310        0.0909834253
 H         -5.8204398701       -2.4982716842        0.5604130818
 H         -6.5665818243        2.1528862699        0.4612607564
 H          5.8528726472        0.8945998521        2.2622053613
 H          6.0243834577        2.0940354212        0.9738237188
 H          7.3945819622        1.0638227118        1.4085990429
 H          7.3319768272       -1.4296925781        0.8141486633
 H          5.8906620754       -2.0859204371        0.0237387525
 H          5.8086048504       -1.5560780942        1.7054966485
 H          7.5502301877        0.3106399742       -1.0472122925
 H          6.1230639942       -0.3916585017       -1.8239809185
 H          6.1645494098        1.3354508772       -1.4424523458
  48
        -73.17079315
 C          6.2445292446       -1.4241314047        0.5402130043
 C          5.8723758190        0.0120025830        0.1707843425
 C          6.4044717072        0.9913579946        1.2157702707
 C          6.3881539038        0.3579234557       -1.2254402489
 O          4.4161540123        0.0059211123        0.1801043202
 C          3.7084763427        1.1070804293       -0.0862738594
 O          4.1677407828        2.2000791861       -0.3880450899
 N          2.3848190830        0.8976796629        0.0306564235
 C          1.7586182272       -0.3855205298        0.2890301878
 C          1.4943878396       -1.1601858745       -1.0079178549
 C          0.2123262561       -0.5351421992       -1.5576992420
 C         -0.6050587819       -0.0962132788       -0.3235729481
 C          0.3613159852       -0.1857914532        0.8788089517
 N         -1.7731895129       -0.9220259211       -0.1261566400
 C         -1.8022873628       -2.2830599799       -0.0475646942
 N         -2.9867462251       -2.7845480388        0.1303724879
 C         -3.8288933052       -1.6976328730        0.1799896589
 C         -3.0685955740       -0.5139620518        0.0207893710
 C         -3.7316476835        0.7152986869        0.0433770247
 C         -3.4379761832        2.0998291776       -0.0583830682
 C         -4.6252624523        2.7632468119        0.0566178060
 N         -5.6455229988        1.8753980944        0.2248332340
 C         -5.1387615580        0.6146429252        0.2236640472
 N         -5.8678901562       -0.4965633917        0.3714583431
 C         -5.2157930144       -1.6397967461        0.3505435767
 H          1.7974890947        1.6660397059       -0.2550990981
 H          2.4209847209       -0.9321989862        0.9620351402
 H          2.3282599982       -1.0770741455       -1.7015217999
 H          1.3461580480       -2.2131265771       -0.7724776970
 H         -0.3524070111       -1.2303126293       -2.1766390030
 H          0.4530621459        0.3355205307       -2.1659348237
 H         -0.9795724996        0.9194333859       -0.4530978958
 H          0.1000567261       -1.0506640627        1.4878817949
 H          0.3140374365        0.6988072032        1.5095391533
 H         -0.9168895890       -2.8812885401       -0.1300222258
 H         -2.4782894452        2.5559883824       -0.1957784051
 H         -4.8129015291        3.8181330065        0.0295848828
 H         -5.8040603146       -2.5371046306        0.4708203290
 H         -6.6197822531        2.1008825404        0.3347913476
 H          5.9982458509        0.7501942328        2.1954277088
 H          6.1185109930        2.0083735971        0.9583726694
 H          7.4871686965        0.9282359464        1.2544192295
 H          7.3239102281       -1.5308276286        0.5488734925
 H          5.8222728078       -2.1148999534       -0.1838502179
 H          5.8534729718       -1.6686769500        1.5235848103
 H          7.4712870108        0.2926896131       -1.2391359132
 H          5.9806200749       -0.3357397748       -1.9573606399
 H          6.0916037408        1.3685486443       -1.4956997395
  48
        -73.17070097
 C          5.5759990682        0.7483808101        2.1839010516
 C          5.5432245059        1.3142519987        0.7649916089
 C          5.7526668068        2.8285286069        0.7836736481
 C          6.5842227457        0.6377690588       -0.1256452326
 O          4.2133940695        1.1558481504        0.1904672277
 C          3.6651422869       -0.0526958696        0.0039091759
 O          4.1746117473       -1.1241700693        0.2874035357
 N          2.4485012553        0.0833021817       -0.5534209678
 C          1.5908329370       -1.0303536795       -0.8833045127
 C          1.2311467271       -1.0535280650       -2.3822425876
 C         -0.2157958936       -1.5352654588       -2.4266547196
 C         -0.8320044591       -0.8229202115       -1.2223501222
 C          0.2428408571       -0.9744133451       -0.1317595128
 N         -2.1185519342       -1.3208944246       -0.8056127763
 C         -2.6189175228       -2.5862532739       -0.8901110713
 N         -3.8031652265       -2.7300864917       -0.3757757108
 C         -4.1369203093       -1.4857537786        0.1074001741
 C         -3.0730719569       -0.5911001043       -0.1523147517
 C         -3.1919437582        0.7346261035        0.2684698686
 C         -2.4390807953        1.9367022552        0.2618513047
 C         -3.2055812566        2.8831261439        0.8781571038
 N         -4.3944037161        2.3433451994        1.2706283260
 C         -4.4215284811        1.0312072581        0.9181366141
 N         -5.4386685068        0.1976638927        1.1614460577
 C         -5.2940077637       -1.0479553622        0.7607605815
 H          2.1317198474        1.0209294497       -0.7496120791
 H          2.1549929095       -1.9221241620       -0.5988645759
 H          1.2994960298       -0.0417541867       -2.7824921487
 H          1.9011218349       -1.6926300142       -2.9514687716
 H         -0.2470952586       -2.6143250649       -2.2849945224
 H         -0.7154258503       -1.2870108113       -3.3604102000
 H         -0.9726768927        0.2345027924       -1.4652474688
 H          0.0740500391       -1.9020589868        0.4148562888
 H          0.2193034309       -0.1545410384        0.5835697222
 H         -2.0856846349       -3.3930330014       -1.3505687515
 H         -1.4572854479        2.0859298557       -0.1391218648
 H         -2.9812579959        3.9141628074        1.0661062504
 H         -6.1144184833       -1.7206533844        0.9609338499
 H         -5.1380034130        2.8239187900        1.7484262556
 H          5.6886236692        3.2238907319       -0.2259639493
 H          6.7292097365        3.0575688640        1.1965138223
 H          4.9867841980        3.3011602472        1.3917879560
 H          6.5470638291        0.9397195485        2.6290292245
 H          5.4008627343       -0.3246097918        2.1651655753
 H          4.8062425795        1.2184811251        2.7916301597
 H          7.5776667295        0.8273211885        0.2678423170
 H          6.4141265662       -0.4358266302       -0.1539078217
 H          6.5205095486        1.0297960009       -1.1381261791
  48
        -73.17069708
 C          5.4547011654        0.8643878723        2.2258202217
 C          5.4912593355        1.3442350133        0.7756282761
 C          5.7226754908        2.8541212491        0.7133222087
 C          6.5590971887        0.6022758179       -0.0266772138
 O          4.1844503592        1.1685560522        0.1550142027
 C          3.6256112484       -0.0417715429        0.0186358411
 O          4.1091111956       -1.1011800384        0.3818469915
 N          2.4319636900        0.0762033871       -0.5903967662
 C          1.5717195670       -1.0450294373       -0.8856636526
 C          1.2438944401       -1.1380851774       -2.3887243914
 C         -0.2002702970       -1.6274258756       -2.4380828561
 C         -0.8436130119       -0.8529780427       -1.2883505301
 C          0.2075283069       -0.9451981692       -0.1679465204
 N         -2.1376602274       -1.3315844247       -0.8709198846
 C         -2.6781998828       -2.5775492643       -0.9877238077
 N         -3.8565669167       -2.7028309390       -0.4551591105
 C         -4.1433130191       -1.4659739136        0.0748864509
 C         -3.0585128103       -0.5950824923       -0.1778300166
 C         -3.1317691969        0.7208927031        0.2815681970
 C         -2.3469678035        1.9022398115        0.2894341513
 C         -3.0738519087        2.8516413060        0.9477950515
 N         -4.2679182650        2.3330588340        1.3527739182
 C         -4.3388108581        1.0324831620        0.9654205964
 N         -5.3741931757        0.2209007502        1.2058756734
 C         -5.2739494727       -1.0154716691        0.7648845758
 H          2.1332611749        1.0049808206       -0.8476268994
 H          2.1217071715       -1.9264818502       -0.5464720203
 H          1.3166477192       -0.1456291668       -2.8339559005
 H          1.9269936894       -1.8003500209       -2.9141727801
 H         -0.2291154689       -2.6968994946       -2.2354286086
 H         -0.6803853362       -1.4342647455       -3.3947438890
 H         -0.9789257770        0.1910384490       -1.5887871295
 H          0.0244067909       -1.8407736494        0.4255564522
 H          0.1710321678       -0.0875256487        0.5009507420
 H         -2.1805332568       -3.3832087987       -1.4878990665
 H         -1.3716616051        2.0357255245       -0.1322689752
 H         -2.8186956918        3.8712534711        1.1574759714
 H         -6.1095883416       -1.6702886921        0.9611545519
 H         -4.9872796914        2.8197941775        1.8604314612
 H          6.6830141632        3.0954095882        1.1560328580
 H          4.9374288744        3.3720600720        1.2563548799
 H          5.7101990333        3.1885765072       -0.3199886481
 H          5.2627137191       -0.2052427001        2.2632749446
 H          4.6679669533        1.3809933428        2.7708130769
 H          6.4091768085        1.0683435004        2.7002574060
 H          6.3737881860       -0.4687893913        0.0011322745
 H          6.5458249352        0.9338437046       -1.0623801271
 H          7.5373346601        0.8021956149        0.3985088878
  48
        -73.17067517
 C          6.7670278256        0.8577765021       -0.9450886623
 C          5.6088067017       -0.0097647642       -0.4518336175
 C          5.3170839604       -1.1327588757       -1.4465053561
 C          5.9090602087       -0.5666602177        0.9393160425
 O          4.4855920467        0.9146477643       -0.3921551072
 C          3.2644243557        0.5196196416        0.0054203365
 O          2.9618454584       -0.6097516315        0.3509011559
 N          2.4228593205        1.5694206418       -0.0442820388
 C          1.0242584161        1.5317126712        0.3437225751
 C          0.8430258917        1.2153305975        1.8455718633
 C         -0.3627308456        0.2856127579        1.9276398240
 C         -0.2315088568       -0.5514375335        0.6513917175
 C          0.2275147438        0.4504962130       -0.4164782636
 N         -1.4328555386       -1.2588515925        0.2951409003
 C         -1.5346914814       -2.6137569535        0.1992245642
 N         -2.7142585294       -3.0461851885       -0.1262630478
 C         -3.4776549505       -1.9105737722       -0.2641679764
 C         -2.6788645440       -0.7696715170        0.0001120315
 C         -3.2810732137        0.4908083508       -0.0925190660
 C         -2.9457363712        1.8626664888        0.0610946759
 C         -4.0785493028        2.5790887914       -0.1951804797
 N         -5.1062003592        1.7388258387       -0.5018611762
 C         -4.6585423055        0.4571758617       -0.4493636503
 N         -5.4177392475       -0.6147328939       -0.6988336142
 C         -4.8280101092       -1.7869807884       -0.6055340082
 H          2.8277178571        2.4449954615       -0.3354469382
 H          0.6280373289        2.5206699237        0.1109068736
 H          1.7301056851        0.6881365760        2.1965378634
 H          0.7158054999        2.1167881076        2.4401518684
 H         -1.2957558642        0.8467356818        1.9091090828
 H         -0.3484216348       -0.3328362838        2.8231135445
 H          0.5549422901       -1.2994937482        0.7928513654
 H         -0.6364106445        0.8843403276       -0.9159685771
 H          0.8486589549       -0.0352361978       -1.1665636046
 H         -0.6939266433       -3.2550463928        0.3805731925
 H         -1.9948272708        2.2759878263        0.3279575194
 H         -4.2215990877        3.6410632145       -0.1795288165
 H         -5.4352785697       -2.6567107481       -0.8061724715
 H         -6.0488819287        2.0056996462       -0.7303558527
 H          5.0705567407       -0.7149690074       -2.4200397915
 H          4.4802284654       -1.7349239712       -1.1009662085
 H          6.1914731044       -1.7682042501       -1.5435317986
 H          6.5264267185        1.2787803162       -1.9170611417
 H          7.6658540566        0.2562685279       -1.0280512685
 H          6.9433272849        1.6716798268       -0.2477593129
 H          6.0738680571        0.2486019933        1.6401460606
 H          5.0760550714       -1.1700964720        1.2916868564
 H          6.7995256575       -1.1856311675        0.8980818780
  48
        -73.17066929
 C          5.6994995728        2.7923188811        1.0525514860
 C          5.5009144244        1.2833920487        0.9078140080
 C          6.5591446984        0.6873927099       -0.0192539055
 C          5.5178428273        0.6042528716        2.2763826240
 O          4.1801854912        1.1650100851        0.3033873361
 C          3.6416716473       -0.0269447064        0.0115655016
 O          4.1546861243       -1.1154151007        0.2115513472
 N          2.4303354346        0.1481979877       -0.5466038204
 C          1.5853527561       -0.9386313725       -0.9820956679
 C          1.2484625187       -0.8377846706       -2.4832120875
 C         -0.1949663185       -1.3202050699       -2.5895083137
 C         -0.8323577353       -0.7106433158       -1.3412608353
 C          0.2253295136       -0.9537247931       -0.2503341948
 N         -2.1249456006       -1.2417170266       -0.9883688066
 C         -2.6525394750       -2.4721643071       -1.2453705949
 N         -3.8375382896       -2.6619481969       -0.7478297569
 C         -4.1431419482       -1.4906418294       -0.0939053540
 C         -3.0619821694       -0.5902830593       -0.2346247332
 C         -3.1521820026        0.6674318292        0.3639930084
 C         -2.3754063640        1.8444758406        0.5151738972
 C         -3.1199410573        2.7126861809        1.2601872119
 N         -4.3175768189        2.1474470562        1.5840897225
 C         -4.3727635207        0.8964034566        1.0564169739
 N         -5.4057735233        0.0575169749        1.1899992574
 C         -5.2883588815       -1.1238920711        0.6212152912
 H          2.1099460888        1.0971724187       -0.6682861108
 H          2.1513985492       -1.8478704808       -0.7645471484
 H          1.3169375524        0.2041993314       -2.7964346875
 H          1.9302392610       -1.4242683728       -3.0935557888
 H         -0.2214178549       -2.4073414651       -2.5346702441
 H         -0.6814871630       -0.9997215596       -3.5080173462
 H         -0.9691937860        0.3642477923       -1.4961852380
 H          0.0521655870       -1.9267293339        0.2091211263
 H          0.1865139220       -0.2008122955        0.5345203893
 H         -2.1396226567       -3.2167070298       -1.8194493666
 H         -1.3931559231        2.0275675755        0.1296746801
 H         -2.8747373265        3.7041453957        1.5850885606
 H         -6.1218009273       -1.8011448215        0.7324393752
 H         -5.0499905237        2.5734801722        2.1264834518
 H          6.5082904350        1.1606189584       -0.9971422145
 H          6.3963746594       -0.3811355201       -0.1377479205
 H          7.5453698247        0.8492278333        0.4036804107
 H          4.9204328569        3.2097326448        1.6838740217
 H          5.6492526563        3.2679277379        0.0773351990
 H          6.6675520588        2.9925088460        1.4989931472
 H          6.4819386495        0.7628580385        2.7486788545
 H          4.7377703612        1.0201271698        2.9099011460
 H          5.3488187598       -0.4643882347        2.1680286736
  48
        -73.17062391
 C          5.5342444655        2.9125604740        0.9187017154
 C          5.3624231627        1.3935233961        0.9043015867
 C          6.4815933064        0.7326192829        0.1011390613
 C          5.3047287853        0.8444157141        2.3289913274
 O          4.0816014388        1.1967187472        0.2375916440
 C          3.5750872669       -0.0262780092        0.0286822178
 O          4.0897774056       -1.0826299022        0.3557971367
 N          2.3954025824        0.0754552729       -0.6097475325
 C          1.5821094991       -1.0611935079       -0.9740901979
 C          1.2747913538       -1.0811122791       -2.4855517237
 C         -0.1816007097       -1.5271615026       -2.5861165023
 C         -0.8205735231       -0.8226589093       -1.3906164154
 C          0.2082862309       -1.0460660063       -0.2696841524
 N         -2.1375700474       -1.2861315185       -1.0324741199
 C         -2.7414143380       -2.4774527171       -1.3044951206
 N         -3.9272364971       -2.6072732943       -0.7895807629
 C         -4.1524050094       -1.4334103538       -0.1082943109
 C         -3.0230919582       -0.5949562165       -0.2521997903
 C         -3.0313074552        0.6563892696        0.3658558805
 C         -2.1879101697        1.7866972551        0.5160364505
 C         -2.8680201652        2.6835017994        1.2883283486
 N         -4.0880976019        2.1800224405        1.6300556362
 C         -4.2235580910        0.9422398000        1.0857909944
 N         -5.3000165789        0.1610160777        1.2260138609
 C         -5.2615783769       -1.0144761612        0.6344612944
 H          2.0664331883        1.0039474408       -0.8279443278
 H          2.1616784284       -1.9370222858       -0.6721339023
 H          1.3840271137       -0.0731711874       -2.8860076540
 H          1.9484370001       -1.7386316658       -3.0287399203
 H         -0.2414377607       -2.6072730270       -2.4606568446
 H         -0.6424580204       -1.2532327709       -3.5324604518
 H         -0.9113612244        0.2472457212       -1.6062723597
 H          0.0164988598       -2.0078192743        0.2060273712
 H          0.1602277174       -0.2763156253        0.4979207453
 H         -2.2842856631       -3.2377980046       -1.9042619059
 H         -1.2061419111        1.9214981185        0.1100526756
 H         -2.5627305201        3.6555609681        1.6210011404
 H         -6.1308023035       -1.6444830132        0.7492660181
 H         -4.7840566667        2.6376738414        2.1941409454
 H          6.4853836738        1.1131068395       -0.9176766356
 H          6.3381863995       -0.3448337576        0.0727427709
 H          7.4383233504        0.9490258082        0.5653647179
 H          4.7147586593        3.3731043556        1.4628749394
 H          5.5353982192        3.2949346592       -0.0979235646
 H          6.4721042813        3.1698777354        1.3989864174
 H          6.2366093513        1.0626088097        2.8405396438
 H          4.4830176652        1.3036794666        2.8737153887
 H          5.1550071648       -0.2324060863        2.3111573711
  48
        -73.17060600
 C          5.4729101256        2.9482255034        0.8789026296
 C          5.3097099099        1.4284303925        0.9070704587
 C          6.4526818508        0.7499571162        0.1537062095
 C          5.2182160973        0.9230140140        2.3461098872
 O          4.0473232300        1.2036351324        0.2146730037
 C          3.5524536850       -0.0280932407        0.0302772959
 O          4.0646617752       -1.0711954622        0.4008641791
 N          2.3885369162        0.0477282522       -0.6399391201
 C          1.5844977057       -1.1030336144       -0.9804826899
 C          1.2810042740       -1.1568459216       -2.4920780073
 C         -0.1810233105       -1.5862748081       -2.5887727341
 C         -0.8141984342       -0.8571497622       -1.4052008031
 C          0.2090678802       -1.0811865247       -0.2797601063
 N         -2.1380116169       -1.2986485431       -1.0442784690
 C         -2.7649623026       -2.4771343535       -1.3196869381
 N         -3.9501307508       -2.5882485087       -0.7990306250
 C         -4.1503313380       -1.4143363094       -0.1100675491
 C         -3.0069536220       -0.5954533323       -0.2560553311
 C         -2.9900024326        0.6533130897        0.3670154331
 C         -2.1270147314        1.7689774059        0.5156893264
 C         -2.7870114575        2.6739671577        1.2958530620
 N         -4.0128364137        2.1894591833        1.6439602649
 C         -4.1726671121        0.9563424411        1.0956617085
 N         -5.2615179151        0.1932597462        1.2391013837
 C         -5.2474648655       -0.9797014255        0.6414840360
 H          2.0579383981        0.9679009840       -0.8887397347
 H          2.1694668120       -1.9673876132       -0.6567418445
 H          1.4055163649       -0.1609288628       -2.9172264079
 H          1.9474301690       -1.8365449631       -3.0164987919
 H         -0.2546635396       -2.6635759374       -2.4471593336
 H         -0.6362063176       -1.3209041590       -3.5402927329
 H         -0.8893040520        0.2113243285       -1.6341899945
 H          0.0123516418       -2.0417298106        0.1964303465
 H          0.1616566224       -0.3102493361        0.4866773586
 H         -2.3251585131       -3.2419642545       -1.9266636887
 H         -1.1461674705        1.8892256949        0.1029859043
 H         -2.4636887675        3.6397865018        1.6298072810
 H         -6.1271600330       -1.5945672203        0.7585033741
 H         -4.6973941771        2.6561364153        2.2145830111
 H          7.3959965380        0.9870125147        0.6350579225
 H          6.4803768266        1.0984071298       -0.8761323809
 H          6.3161737711       -0.3287436439        0.1555580162
 H          5.4997669905        3.2990077323       -0.1487122911
 H          6.3959059424        3.2260851817        1.3762488257
 H          4.6363462071        3.4202028612        1.3860206263
 H          4.3808710145        1.3944256045        2.8555121377
 H          5.0738829181       -0.1546535719        2.3576162530
 H          6.1358070919        1.1616440821        2.8740809805
  48
        -73.17055176
 C          5.3263038037        3.0172466460        0.8257253932
 C          5.1892814700        1.4974611588        0.9190220060
 C          6.3815562045        0.8073671278        0.2584685248
 C          5.0321396517        1.0589482853        2.3742943895
 O          3.9682862490        1.2147041060        0.1756022080
 C          3.5052482948       -0.0340086810        0.0262608907
 O          4.0173149328       -1.0482037978        0.4697992564
 N          2.3758825584       -0.0130635831       -0.7044472761
 C          1.5940382639       -1.1911343528       -1.0028064489
 C          1.2916625414       -1.3004820841       -2.5121076330
 C         -0.1834788815       -1.6879904235       -2.6019678624
 C         -0.7970593974       -0.9242307969       -1.4302196309
 C          0.2188620832       -1.1666730944       -0.3031135455
 N         -2.1332491962       -1.3217557159       -1.0640605097
 C         -2.8042826904       -2.4746438389       -1.3438229417
 N         -3.9874197096       -2.5486427601       -0.8119016258
 C         -4.1389375830       -1.3749947626       -0.1102638347
 C         -2.9692191908       -0.5952721290       -0.2614163454
 C         -2.9027649740        0.6474601673        0.3704447536
 C         -2.0012941683        1.7326479538        0.5160868242
 C         -2.6212012213        2.6535713149        1.3103174326
 N         -3.8583031298        2.2076454862        1.6702178485
 C         -4.0659177995        0.9847158087        1.1151964043
 N         -5.1783960773        0.2578362811        1.2655509813
 C         -5.2117556106       -0.9094128944        0.6577747116
 H          2.0358395182        0.8891818239       -1.0015689065
 H          2.1944849564       -2.0314811825       -0.6461466601
 H          1.4513315445       -0.3289126002       -2.9793400606
 H          1.9371689295       -2.0233223222       -3.0039449767
 H         -0.2894527302       -2.7603036258       -2.4435371633
 H         -0.6298641342       -1.4243680418       -3.5581115139
 H         -0.8389475284        0.1434724451       -1.6715837903
 H          0.0143323460       -2.1319756625        0.1601024200
 H          0.1757533225       -0.4048084979        0.4726150273
 H         -2.3981196364       -3.2480293433       -1.9632145573
 H         -1.0221990248        1.8232602092        0.0917986590
 H         -2.2618420487        3.6058113405        1.6463346148
 H         -6.1106918672       -1.4947420365        0.7799271529
 H         -4.5198987948        2.6925259414        2.2526813972
 H          6.2647634372       -0.2726191920        0.3061298444
 H          7.2944420689        1.0866344220        0.7746384349
 H          6.4557560616        1.1065204269       -0.7844888538
 H          5.4028955679        3.3191649944       -0.2148076152
 H          6.2155138447        3.3376811230        1.3577905711
 H          4.4547795312        3.4953214176        1.2635479773
 H          4.1611197600        1.5368700145        2.8168530858
 H          4.9066273003       -0.0197042423        2.4305206946
 H          5.9165290630        1.3408818111        2.9364335063
  48
        -73.17048616
 C          4.9950494533        2.8595527720       -0.3565671117
 C          5.2947073838        1.3613992846       -0.3004600009
 C          5.9546053924        0.8958303805       -1.5972679062
 C          6.1629503418        1.0325973901        0.9130254463
 O          3.9795932175        0.7513515556       -0.1562433678
 C          3.8248188328       -0.5727543138       -0.0831838396
 O          4.7241622840       -1.4020523234       -0.1017392001
 N          2.5310940491       -0.9317311823        0.0011646667
 C          1.4004985256       -0.0299216988        0.1176574866
 C          0.9623683362        0.1433737763        1.5889599923
 C         -0.3262403692       -0.6712241616        1.7777699102
 C         -0.5309061055       -1.4489762210        0.4674085463
 C          0.1839737391       -0.6141929968       -0.6024342867
 N         -1.9186809160       -1.6883843163        0.1626391786
 C         -2.4796439294       -2.9195286735       -0.0032559111
 N         -3.7478804731       -2.9034905518       -0.2755816037
 C         -4.0851520286       -1.5704769724       -0.2991447973
 C         -2.9361648918       -0.7882880248       -0.0230572001
 C         -3.0762129125        0.6040140560        0.0002102536
 C         -2.2872037226        1.7652710884        0.2160769955
 C         -3.1182308385        2.8390448621        0.0798509499
 N         -4.3825456958        2.4211641727       -0.2089991841
 C         -4.3966128148        1.0640454163       -0.2656356664
 N         -5.4843771606        0.3326478033       -0.5281988436
 C         -5.3257977981       -0.9731345352       -0.5438314331
 H          2.3669919097       -1.9170794696        0.1426245001
 H          1.7184384592        0.9162295491       -0.3210361264
 H          1.7558200508       -0.2081224603        2.2466226486
 H          0.7937681613        1.1946802333        1.8120474595
 H         -1.1790098435       -0.0147065574        1.9428295880
 H         -0.2596418558       -1.3480467177        2.6272461420
 H         -0.0629428296       -2.4352472955        0.5418061296
 H         -0.4720111538        0.1859308130       -0.9394557096
 H          0.4729885899       -1.2090230920       -1.4664585484
 H         -1.9050818844       -3.8209007836        0.0875583585
 H         -1.2421759551        1.8116980881        0.4432797004
 H         -2.8908133755        3.8824421683        0.1701289234
 H         -6.2011413778       -1.5688343515       -0.7545844374
 H         -5.1862937006        3.0076148960       -0.3572950493
 H          6.8963049116        1.4177974348       -1.7331745349
 H          5.3050568620        1.1058270790       -2.4440078986
 H          6.1457666248       -0.1739334830       -1.5590873633
 H          4.3539290734        3.0788804476       -1.2054604196
 H          5.9221329653        3.4135426491       -0.4570930626
 H          4.4889327874        3.1705551410        0.5526857718
 H          7.1131459252        1.5502986430        0.8308048632
 H          5.6632317572        1.3472115117        1.8263077215
 H          6.3471196502       -0.0378406470        0.9640849740
  48
        -73.17046968
 C          6.3215173935        0.8996859749        0.1407886810
 C          5.0968345735        1.7184059543        0.5455633878
 C          4.9050002559        1.7158098414        2.0614883115
 C          5.2061747878        3.1494723280        0.0189367644
 O          3.9048522796        1.1985375379       -0.1120388584
 C          3.4705356396       -0.0518102493        0.0981745322
 O          3.9851803165       -0.8775019983        0.8335964770
 N          2.3688926153       -0.2774977358       -0.6403891737
 C          1.6066786376       -1.5046137976       -0.5879204257
 C          1.3268603389       -2.0526922192       -2.0038531674
 C         -0.1607982710       -2.4047912325       -2.0213012061
 C         -0.7669091232       -1.3335604379       -1.1172196775
 C          0.2220121385       -1.2936274738        0.0572541177
 N         -2.1224827062       -1.5742144091       -0.6913660955
 C         -2.8335596768       -2.7365821460       -0.6647042812
 N         -4.0274003211       -2.6230233100       -0.1644536448
 C         -4.1442019018       -1.2978917318        0.1870242355
 C         -2.9423221609       -0.6287861402       -0.1394236848
 C         -2.8366774180        0.7363158279        0.1313220818
 C         -1.8943617635        1.7882390228        0.0007868637
 C         -2.4901749432        2.9119274876        0.4962249373
 N         -3.7506148562        2.6244069394        0.9292520847
 C         -3.9978321961        1.3039584288        0.7235090565
 N         -5.1404117981        0.6835474423        1.0369526262
 C         -5.2098329335       -0.6038031907        0.7705777152
 H          2.0196618505        0.4911544333       -1.1926821037
 H          2.2116767329       -2.1932041736        0.0065425981
 H          1.5357257831       -1.2725773000       -2.7355060389
 H          1.9523196739       -2.9103405042       -2.2367864051
 H         -0.3087893183       -3.3895993211       -1.5802883431
 H         -0.5818058905       -2.3986162220       -3.0241651741
 H         -0.7651145914       -0.3703160861       -1.6390397681
 H         -0.0034416416       -2.1119578997        0.7412473922
 H          0.1754147492       -0.3619171857        0.6174770652
 H         -2.4479247004       -3.6627142993       -1.0394629287
 H         -0.9046521280        1.7258805482       -0.4036369920
 H         -2.0976100738        3.9065070609        0.5699628841
 H         -6.1327294501       -1.1027218255        1.0253933805
 H         -4.4015695325        3.2728737140        1.3391123793
 H          4.0108541137        2.2755214476        2.3263031282
 H          5.7657005008        2.1744256402        2.5374526480
 H          4.8011862244        0.6965137424        2.4255788193
 H          6.2234938584       -0.1235825995        0.4952240359
 H          7.2128392643        1.3398697535        0.5760594552
 H          6.4217914900        0.8877754417       -0.9420562326
 H          5.3043382111        3.1397537798       -1.0627133576
 H          4.3141341534        3.7104282340        0.2823501248
 H          6.0744526240        3.6335407259        0.4528373773
  48
        -73.17040422
 C          4.8247199715        1.3972512492        2.2653567046
 C          5.0183938063        1.6406775236        0.7693269620
 C          5.0969179397        3.1384068081        0.4728116312
 C          6.2616034279        0.9221246656        0.2477660959
 O          3.8389539985        1.2040983798        0.0331374431
 C          3.4332215241       -0.0732291334        0.0420498874
 O          3.9659047725       -0.9925039823        0.6408820540
 N          2.3383694899       -0.2049740415       -0.7285898565
 C          1.6007623652       -1.4410010029       -0.8673955984
 C          1.3090469674       -1.7532908018       -2.3515156702
 C         -0.1903783717       -2.0472329169       -2.4286061114
 C         -0.7672049887       -1.1498312672       -1.3357445754
 C          0.2230103058       -1.3622759285       -0.1819608454
 N         -2.1293591242       -1.4289491836       -0.9571912950
 C         -2.8809351237       -2.5463478356       -1.1666819829
 N         -4.0711129966       -2.4964954423       -0.6476825280
 C         -4.1418907737       -1.2689740727       -0.0303152472
 C         -2.9165951228       -0.5891348381       -0.2185048071
 C         -2.7637154363        0.6868526507        0.3261771069
 C         -1.7855141399        1.7105193768        0.4094561851
 C         -2.3433894927        2.7284014386        1.1277396556
 N         -3.6140043304        2.4014172462        1.4985543078
 C         -3.9059215935        1.1605047474        1.0277689746
 N         -5.0703395654        0.5291935128        1.2125095727
 C         -5.1841326820       -0.6728976235        0.6881637802
 H          1.9697216193        0.6335222232       -1.1515826729
 H          2.2271767367       -2.2036197962       -0.3990028159
 H          1.5524856358       -0.8788952476       -2.9541846334
 H          1.9049160901       -2.5872039824       -2.7128367760
 H         -0.3715259743       -3.0925248471       -2.1819561291
 H         -0.6080465342       -1.8381488701       -3.4109022357
 H         -0.7369885900       -0.1049905867       -1.6640650918
 H         -0.0047399574       -2.3056029110        0.3146622195
 H          0.1858842107       -0.5690766786        0.5620760348
 H         -2.5277392110       -3.3883460418       -1.7262665988
 H         -0.7972543730        1.6989015419       -0.0033283456
 H         -1.9172405064        3.6728369531        1.4019099291
 H         -6.1248556285       -1.1807202748        0.8389375618
 H         -4.2435200015        2.9734277587        2.0358206564
 H          5.1975477140        3.2996154776       -0.5965886727
 H          5.9533959804        3.5674428822        0.9815996764
 H          4.1921886714        3.6320846014        0.8155839602
 H          4.7420341943        0.3316365990        2.4653551909
 H          3.9187053327        1.8900980643        2.6104210318
 H          5.6749275781        1.7935518663        2.8110473270
 H          6.1861473877       -0.1457882451        0.4379929123
 H          6.3636424741        1.0813217722       -0.8231748936
 H          7.1422079756        1.3087546506        0.7505477926
  48
        -73.17040366
 C          6.2056736374       -0.1908885879        1.5423449710
 C          5.7256152391        1.0372032814        0.7703614885
 C          5.8108310298        2.2894063705        1.6432439355
 C          6.5207425548        1.2251675386       -0.5207300735
 O          4.3040612121        0.9197595437        0.4721132297
 C          3.8220844610       -0.0748583863       -0.2859488118
 O          4.4744801844       -0.9715196437       -0.7942121322
 N          2.4899205836        0.0581880622       -0.4149559655
 C          1.6650006380       -0.8660238954       -1.1616590691
 C          0.8735018080       -0.1422629981       -2.2755676350
 C         -0.6052439973       -0.4245334318       -2.0019172410
 C         -0.6493183263       -0.6854442902       -0.4905279860
 C          0.6042553008       -1.5301835289       -0.2658047062
 N         -1.8849142574       -1.2903510113       -0.0598832921
 C         -2.1944169669       -2.6047892818        0.1257317039
 N         -3.4284130410       -2.8212418319        0.4700778411
 C         -4.0121231708       -1.5762357225        0.5141298687
 C         -3.0443026815       -0.6032494840        0.1745721923
 C         -3.4207156517        0.7406516059        0.1496531179
 C         -2.8535059040        2.0115099167       -0.1245717855
 C         -3.8470780556        2.9304856261        0.0532499599
 N         -5.0028849503        2.3087707028        0.4226057916
 C         -4.7820814997        0.9697025748        0.4900503683
 N         -5.7058959296        0.0601256450        0.8184959554
 C         -5.3224602959       -1.1991569705        0.8279862353
 H          2.0547539556        0.8355261371        0.0581916590
 H          2.3610902254       -1.6053587433       -1.5647286070
 H          1.0750179946        0.9266448576       -2.2185129648
 H          1.1717696973       -0.4855946936       -3.2627101903
 H         -0.9301507769       -1.3252852217       -2.5244005190
 H         -1.2522048128        0.3975509566       -2.3006710926
 H         -0.5593104280        0.2622066667        0.0506421419
 H          0.4360087773       -2.5468923129       -0.6153200319
 H          0.9165771970       -1.5653623938        0.7756161546
 H         -1.4792566764       -3.3939484629        0.0126704722
 H         -1.8458256266        2.2225481292       -0.4198338454
 H         -3.8085147825        3.9956479459       -0.0592357451
 H         -6.0700168367       -1.9322596845        1.0913615593
 H         -5.8843745676        2.7545379630        0.6135057141
 H          5.4319339896        3.1483810325        1.0970673691
 H          6.8429071612        2.4702525693        1.9235837258
 H          5.2136722962        2.1569999293        2.5408466173
 H          6.1183222384       -1.0813646167        0.9245203244
 H          5.6061783116       -0.3263360882        2.4396578590
 H          7.2448452960       -0.0585635687        1.8256943330
 H          6.1453396604        2.0861428670       -1.0689170509
 H          7.5675943165        1.3837008872       -0.2827142501
 H          6.4309497429        0.3425551983       -1.1493851619
  48
        -73.17038628
 C          5.8697258215        1.8659954604        2.0790016556
 C          5.7592149856        0.8389623187        0.9519869027
 C          6.5459532720        1.2986847117       -0.2745011879
 C          6.2283744109       -0.5352733784        1.4274694433
 O          4.3335828107        0.8068095686        0.6514473711
 C          3.8328286787        0.0130673708       -0.3051873607
 O          4.4698669369       -0.7532218703       -1.0087345362
 N          2.5013399772        0.1853898791       -0.3871738878
 C          1.6606539277       -0.5379355386       -1.3154833061
 C          0.8569365276        0.4261766949       -2.2181891879
 C         -0.6161588222        0.0629095133       -2.0239144477
 C         -0.6540771463       -0.5362685358       -0.6119988089
 C          0.6103370245       -1.3943717010       -0.5846333672
 N         -1.8808190057       -1.2397403581       -0.3316575614
 C         -2.1707509791       -2.5666892524       -0.4458340458
 N         -3.4013074173       -2.8727314612       -0.1626647642
 C         -4.0033714302       -1.6778865878        0.1572661524
 C         -3.0503583579       -0.6394766027        0.0467641497
 C         -3.4476387211        0.6703302968        0.3205712375
 C         -2.9002354249        1.9787996461        0.3385303709
 C         -3.9083217899        2.8201096633        0.7117341544
 N         -5.0545489326        2.1143263321        0.9280874157
 C         -4.8127938360        0.7972400116        0.6973848228
 N         -5.7224691952       -0.1764760840        0.8122430758
 C         -5.3192400264       -1.4004078103        0.5433143418
 H          2.0785112121        0.8382009942        0.2551392929
 H          2.3472510976       -1.1635318181       -1.8906359930
 H          1.0413066108        1.4507651941       -1.8976648155
 H          1.1586164564        0.3424529580       -3.2589683513
 H         -0.9239999811       -0.7006622010       -2.7395154300
 H         -1.2778824005        0.9199005068       -2.1299718429
 H         -0.5748839272        0.2644776396        0.1306988253
 H          0.4508805372       -2.3109760376       -1.1489608947
 H          0.9288271798       -1.6551088278        0.4222859543
 H         -1.4440103380       -3.3000328374       -0.7305391917
 H         -1.8954727075        2.2651908336        0.1026094258
 H         -3.8865942471        3.8840793673        0.8388723901
 H         -6.0546119829       -2.1856300327        0.6348166969
 H         -5.9433726868        2.4933083865        1.2079905140
 H          6.4415345328        0.5763076442       -1.0804228812
 H          7.5963753167        1.3920134733       -0.0183388929
 H          6.1753231595        2.2621591331       -0.6166577011
 H          5.4986891912        2.8290443476        1.7404982500
 H          6.9066714418        1.9677842734        2.3804740933
 H          5.2784769021        1.5456532647        2.9319989228
 H          5.6358097135       -0.8582101921        2.2804160817
 H          6.1215353141       -1.2659232391        0.6293091524
 H          7.2721992985       -0.4819182939        1.7194456176
  48
        -73.17036606
 C          4.7081776740        1.4456885770        2.2751767884
 C          4.9450808049        1.6676734868        0.7819876981
 C          5.0133841307        3.1614111502        0.4636257242
 C          6.2130071794        0.9576277922        0.3107935273
 O          3.7945225039        1.2036249943        0.0174413589
 C          3.4046070247       -0.0785047241        0.0358035331
 O          3.9305185492       -0.9808017256        0.6655690636
 N          2.3360906099       -0.2376455409       -0.7663839337
 C          1.6081972105       -1.4813802426       -0.8907195757
 C          1.3110091252       -1.8064099605       -2.3709065760
 C         -0.1939359441       -2.0747656217       -2.4474065950
 C         -0.7561080859       -1.1736780563       -1.3499682907
 C          0.2333974080       -1.4063076666       -0.1999280039
 N         -2.1215427676       -1.4336228510       -0.9697881651
 C         -2.8932236296       -2.5357384348       -1.1866449662
 N         -4.0806697791       -2.4696785546       -0.6631718264
 C         -4.1279957799       -1.2466519467       -0.0347460235
 C         -2.8916370516       -0.5867033229       -0.2211458847
 C         -2.7145220801        0.6815827748        0.3339867604
 C         -1.7179723296        1.6869433951        0.4228670955
 C         -2.2555225597        2.7082914617        1.1516135096
 N         -3.5306027259        2.4008472442        1.5236101349
 C         -3.8459814397        1.1692622639        1.0433414224
 N         -5.0206049201        0.5568351285        1.2267465420
 C         -5.1571657022       -0.6386190109        0.6925362055
 H          1.9653262879        0.5904679761       -1.2077075259
 H          2.2425816581       -2.2346983321       -0.4180697418
 H          1.5720247786       -0.9449390346       -2.9844994490
 H          1.8912786719       -2.6560336751       -2.7208496822
 H         -0.3926614266       -3.1179846783       -2.2055514249
 H         -0.6087342945       -1.8543844428       -3.4284202990
 H         -0.7105271332       -0.1277390634       -1.6732302950
 H          0.0027198243       -2.3558747921        0.2833178900
 H          0.2016486469       -0.6236179389        0.5553835497
 H         -2.5565853502       -3.3787908488       -1.7548135596
 H         -0.7311084205        1.6611196868        0.0073845818
 H         -1.8115910275        3.6425443104        1.4324594480
 H         -6.1061316322       -1.1311440467        0.8423421928
 H         -4.1482921385        2.9796114157        2.0673548194
 H          5.1444416833        3.3069599279       -0.6047373079
 H          5.8484210992        3.6097703317        0.9910363929
 H          4.0924253468        3.6484508721        0.7708037850
 H          5.5354962866        1.8626411268        2.8402976638
 H          4.6336935115        0.3824020267        2.4902265710
 H          3.7852107191        1.9313549852        2.5836925272
 H          6.3465060733        1.1016762580       -0.7588421572
 H          7.0724699067        1.3635142631        0.8345571913
 H          6.1451731329       -0.1081316966        0.5153980969
  48
        -73.17025512
 C          4.7286611950        3.2524286444        0.5627288107
 C          4.7038039193        1.7597468519        0.8920958875
 C          6.0377509010        1.1065541076        0.5348969547
 C          4.3546136099        1.5384049688        2.3632211622
 O          3.6428644206        1.2356120217        0.0416518141
 C          3.3164218361       -0.0643435157        0.0402014774
 O          3.8275960874       -0.9348807324        0.7241904495
 N          2.3349735406       -0.2827284389       -0.8546208767
 C          1.6525649916       -1.5518824150       -0.9930956497
 C          1.3553263007       -1.8575693922       -2.4768961127
 C         -0.1625619683       -2.0452648280       -2.5783633333
 C         -0.6970523374       -1.1916427598       -1.4300409198
 C          0.2802697225       -1.5300509861       -0.2972181660
 N         -2.0728202110       -1.4215157893       -1.0689881538
 C         -2.8927235119       -2.4687144849       -1.3656523583
 N         -4.0790614698       -2.3849873436       -0.8420344152
 C         -4.0743282295       -1.2081164979       -0.1292911956
 C         -2.8078720534       -0.5945749733       -0.2649037921
 C         -2.5756998458        0.6221100553        0.3785580056
 C         -1.5339442971        1.5708441292        0.5426468790
 C         -2.0293380761        2.5628641854        1.3387473192
 N         -3.3205114465        2.2908094818        1.6817006238
 C         -3.6887239906        1.1116030756        1.1153244710
 N         -4.8916812267        0.5431848761        1.2509998349
 C         -5.0793545937       -0.6049540647        0.6348568302
 H          1.9555316745        0.5261938253       -1.3234074638
 H          2.3143885764       -2.2892616472       -0.5334462962
 H          1.6766762477       -1.0149706687       -3.0873139968
 H          1.8901880520       -2.7401180187       -2.8175874139
 H         -0.4148083236       -3.0906582084       -2.4058313702
 H         -0.5567065707       -1.7436705247       -3.5461595040
 H         -0.6110317998       -0.1298616278       -1.6872550398
 H          0.0431540934       -2.5176569929        0.0987855067
 H          0.2518939505       -0.8162745803        0.5237266847
 H         -2.5916623465       -3.2842047229       -1.9911114420
 H         -0.5449367983        1.5275206166        0.1331787924
 H         -1.5444934531        3.4530566276        1.6869349110
 H         -6.0510273816       -1.0620674946        0.7464476548
 H         -3.9149312385        2.8587365674        2.2616143156
 H          6.8318730911        1.5586663743        1.1202914579
 H          6.2504716486        1.2457909242       -0.5225068400
 H          6.0039081329        0.0409039709        0.7483620417
 H          3.7630807859        3.6973178204        0.7852221308
 H          4.9430152538        3.3957049802       -0.4923982999
 H          5.4939230167        3.7442795826        1.1534342633
 H          5.1120158451        1.9982300626        2.9897619072
 H          3.3876929132        1.9823681523        2.5887735415
 H          4.3118635291        0.4744561177        2.5837412297
  48
        -73.17013777
 C          4.0166057730        3.3811065335        0.1555268328
 C          3.9006406497        2.0204592713        0.8427767614
 C          5.2832143140        1.4752624473        1.1956590025
 C          3.0092817716        2.1168422227        2.0806454646
 O          3.2659721249        1.1776058378       -0.1619473135
 C          2.9904658121       -0.1138031212        0.0729367822
 O          3.2242683614       -0.7221190473        1.1033879274
 N          2.4218524204       -0.6623577912       -1.0182163073
 C          1.7921931587       -1.9709482715       -0.9861550709
 C          1.4712212096       -2.4479850652       -2.4137878940
 C         -0.0577471875       -2.3573011908       -2.5706914660
 C         -0.4968598654       -1.4497984868       -1.4207124823
 C          0.4294916468       -1.8977499169       -0.2851470950
 N         -1.8907951498       -1.5064625706       -1.0631320418
 C         -2.8385670170       -2.4453820368       -1.3389356516
 N         -4.0006304911       -2.2038493553       -0.8095775641
 C         -3.8412218353       -1.0271450180       -0.1147580635
 C         -2.5079545185       -0.5821666079       -0.2659979719
 C         -2.1153264301        0.6024670031        0.3599132622
 C         -0.9588187632        1.4116921818        0.5070562115
 C         -1.3185186088        2.4683493503        1.2930397245
 N         -2.6319290210        2.3692184933        1.6443948720
 C         -3.1515258358        1.2399349284        1.0955037656
 N         -4.4167919129        0.8330014176        1.2441938134
 C         -4.7552415587       -0.2894159697        0.6455285698
 H          2.1976492826       -0.0352455181       -1.7762706399
 H          2.4771334717       -2.6325568913       -0.4509320961
 H          1.9812817168       -1.8162980911       -3.1382065081
 H          1.8156567435       -3.4679414717       -2.5639901362
 H         -0.4984135297       -3.3447656477       -2.4441523927
 H         -0.3548782849       -1.9681568293       -3.5418526541
 H         -0.2834711371       -0.4040114882       -1.6694885148
 H          0.1304365798       -2.8851895530        0.0664136357
 H          0.4426906097       -1.2169499745        0.5640886131
 H         -2.6487142554       -3.3014557215       -1.9537686106
 H          0.0159942259        1.2348191504        0.0972332873
 H         -0.7234209783        3.2944827720        1.6288473974
 H         -5.7769483706       -0.6157344830        0.7683434741
 H         -3.1438300071        3.0140005716        2.2227183575
 H          5.1943912732        0.4955579050        1.6589231383
 H          5.7735021141        2.1505025228        1.8895060266
 H          5.8894962160        1.3845490625        0.2973638991
 H          4.4856390069        4.0913159410        0.8279220770
 H          3.0302299131        3.7443488363       -0.1183690909
 H          4.6165621355        3.2908118677       -0.7454066314
 H          3.4425623527        2.8171208072        2.7872579558
 H          2.0157822972        2.4603772959        1.8001215188
 H          2.9201346377        1.1435575569        2.5572756071
  48
        -73.17010495
 C          5.2885764123        1.6213708924        0.9694670995
 C          3.9258443967        2.0983767689        0.4708496655
 C          3.0135409889        2.4853709806        1.6344061791
 C          4.0857835496        3.2681444602       -0.5003743955
 O          3.2918926240        1.0635687748       -0.3352149490
 C          2.9815702192       -0.1376317387        0.1744555021
 O          3.1783781588       -0.5043653160        1.3204344020
 N          2.4245339482       -0.9053212797       -0.7820420201
 C          1.7663112256       -2.1642758037       -0.4796757260
 C          1.4757295381       -2.9421876812       -1.7752137727
 C         -0.0439401504       -2.8516815269       -2.0068376275
 C         -0.4941623637       -1.7086735938       -1.0956497577
 C          0.3857057937       -1.9171576100        0.1417418526
 N         -1.8994528610       -1.6623825029       -0.7832619662
 C         -2.8650592441       -2.6160847380       -0.9020839012
 N         -4.0346689003       -2.2497915839       -0.4699368641
 C         -3.8623649236       -0.9632479522       -0.0140924569
 C         -2.5135212771       -0.5854889172       -0.2051799856
 C         -2.1071947265        0.6913414481        0.1873002479
 C         -0.9345761296        1.4904240926        0.2080595820
 C         -1.2873467316        2.6880810375        0.7601813062
 N         -2.6114858016        2.6864318226        1.0840390227
 C         -3.1456508017        1.4823153544        0.7505455268
 N         -4.4249605116        1.1392670022        0.9350137439
 C         -4.7769116079       -0.0714132092        0.5567660536
 H          2.2336180042       -0.4593666148       -1.6668330412
 H          2.4213518285       -2.6997365953        0.2113689634
 H          2.0296626632       -2.5035183623       -2.6026266820
 H          1.7907853899       -3.9780439250       -1.6786867120
 H         -0.5183450447       -3.7786427491       -1.6891744887
 H         -0.2968045757       -2.6738432969       -3.0495495142
 H         -0.2469586603       -0.7450228040       -1.5555529389
 H          0.0520633633       -2.8002716434        0.6866115419
 H          0.3901898329       -1.0697231163        0.8247910838
 H         -2.6822604748       -3.5801862404       -1.3309732151
 H          0.0453461443        1.2173995945       -0.1305950760
 H         -0.6799928583        3.5518877773        0.9456344791
 H         -5.8101015673       -0.3457119231        0.7077362605
 H         -3.1219874468        3.4426254092        1.5081585572
 H          2.0340317730        2.7759544548        1.2604834612
 H          3.4495343751        3.3177635401        2.1770923006
 H          2.8924025323        1.6449834027        2.3137624852
 H          5.1685811062        0.7720131509        1.6376771429
 H          5.7807494535        2.4258923254        1.5063728762
 H          5.9098140343        1.3210582532        0.1288806562
 H          4.5576772197        4.1026358344        0.0069897347
 H          4.7007184461        2.9675879763       -1.3437637171
 H          3.1132833092        3.5780908110       -0.8719760356
  48
        -73.17008064
 C          4.1954135164        3.3658125060        0.2494051755
 C          4.1314792209        1.9629705152        0.8536182344
 C          5.5329451599        1.3707666579        0.9901856639
 C          3.4061631892        1.9883684303        2.1986598574
 O          3.3547402667        1.2024965114       -0.1166363585
 C          3.0818686806       -0.0979702556        0.0626011341
 O          3.4216259549       -0.7786004104        1.0153923357
 N          2.3806851458       -0.5639561411       -0.9889464862
 C          1.7451302699       -1.8684782441       -0.9815370374
 C          1.4353305310       -2.3269161335       -2.4190271872
 C         -0.0957835581       -2.3006093583       -2.5643073922
 C         -0.5589181155       -1.3936598620       -1.4240336296
 C          0.3788389103       -1.8069394032       -0.2842648381
 N         -1.9512992980       -1.4884574065       -1.0674248143
 C         -2.8735658967       -2.4490270915       -1.3553622119
 N         -4.0440738740       -2.2414249500       -0.8302714583
 C         -3.9183812372       -1.0660600304       -0.1262913897
 C         -2.5963359195       -0.5856707006       -0.2676565572
 C         -2.2385063924        0.6048387681        0.3677416911
 C         -1.1044338059        1.4430209041        0.5259230523
 C         -1.4953674522        2.4849956686        1.3164532397
 N         -2.8074898843        2.3492901715        1.6605210199
 C         -3.2947760871        1.2103610826        1.1018615816
 N         -4.5497193943        0.7695424226        1.2415266884
 C         -4.8552657322       -0.3576088511        0.6340284730
 H          2.0849020904        0.1151822513       -1.6743304724
 H          2.4292668499       -2.5354532609       -0.4522511779
 H          1.9090060665       -1.6518516013       -3.1288913962
 H          1.8259503512       -3.3249417810       -2.5999465909
 H         -0.4946754059       -3.3029711428       -2.4168544376
 H         -0.4159653053       -1.9396949520       -3.5390346666
 H         -0.3748687268       -0.3449390902       -1.6838527276
 H          0.0965961350       -2.7939942166        0.0821592156
 H          0.3789979676       -1.1137405526        0.5549184474
 H         -2.6587279958       -3.2950052652       -1.9758773178
 H         -0.1235051333        1.2954742123        0.1195996853
 H         -0.9225189609        3.3234355411        1.6599093771
 H         -5.8684597137       -0.7119356959        0.7495816337
 H         -3.3390586811        2.9772959592        2.2395064708
 H          6.0181658725        1.3314924634        0.0176573317
 H          5.4781284214        0.3632631936        1.3954772475
 H          6.1244649012        1.9881861704        1.6584968452
 H          4.6776223583        3.3286526899       -0.7231556231
 H          4.7608045017        4.0200828960        0.9041992703
 H          3.1920933870        3.7630069436        0.1253317758
 H          3.3483398753        0.9851268633        2.6141601311
 H          3.9460551679        2.6261870187        2.8909128914
 H          2.3965309885        2.3733995498        2.0718398752
  48
        -73.17003346
 C          5.6515783419        1.4144446893        0.7012087535
 C          4.2711026967        2.0267361991        0.4713486061
 C          3.5889988841        2.3701603688        1.7950926578
 C          4.3722316480        3.2646122027       -0.4200917189
 O          3.4355735987        1.1134405739       -0.2972182695
 C          3.1221044376       -0.1084500280        0.1568955460
 O          3.4635035591       -0.5880988410        1.2246155224
 N          2.3768572108       -0.7545696512       -0.7601212534
 C          1.7085699442       -2.0108775271       -0.4803710661
 C          1.4292626900       -2.7775331928       -1.7877816175
 C         -0.0982711065       -2.8063486999       -1.9565237433
 C         -0.5843426417       -1.6495407393       -1.0837274684
 C          0.3258040740       -1.7713898893        0.1437601862
 N         -1.9847874464       -1.6612077150       -0.7462099378
 C         -2.9022310980       -2.6651945173       -0.8280978003
 N         -4.0832157910       -2.3480924928       -0.3882837469
 C         -3.9710544893       -1.0430748850        0.0323282669
 C         -2.6458380962       -0.6022236899       -0.1871729462
 C         -2.3017204812        0.7036612780        0.1669315841
 C         -1.1719985853        1.5620686203        0.1502297322
 C         -1.5786026449        2.7544071228        0.6760121618
 N         -2.8965809004        2.6931896913        1.0190585931
 C         -3.3724084274        1.4548799925        0.7244039373
 N         -4.6300707955        1.0519047473        0.9352687860
 C         -4.9233690970       -0.1848575812        0.5927490850
 H          2.0911124692       -0.2237907850       -1.5694476604
 H          2.3627323444       -2.5522928909        0.2065943960
 H          1.9043319936       -2.2623444102       -2.6205091684
 H          1.8366715857       -3.7842356966       -1.7447806032
 H         -0.4915775879       -3.7446952465       -1.5683325021
 H         -0.4046710930       -2.7034372464       -2.9949329296
 H         -0.3912213938       -0.6955708696       -1.5875788086
 H          0.0243798864       -2.6351704549        0.7364466069
 H          0.3140416873       -0.8921154300        0.7851030573
 H         -2.6753545907       -3.6291142489       -1.2357765329
 H         -0.1842561414        1.3318579342       -0.1964065383
 H         -1.0131164862        3.6520303401        0.8292670979
 H         -5.9388696260       -0.5085771037        0.7645261205
 H         -3.4398707543        3.4330255830        1.4308457182
 H          2.5945845830        2.7706941242        1.6104439056
 H          4.1778518115        3.1108006649        2.3263559086
 H          3.4986787397        1.4804141100        2.4136055900
 H          5.5696231683        0.5209972290        1.3154729155
 H          6.2879241133        2.1333525170        1.2071573743
 H          6.1038852597        1.1451451999       -0.2504666377
 H          4.8237245221        2.9998813873       -1.3718395897
 H          3.3819921767        3.6704739366       -0.6057322779
 H          4.9817535366        4.0174946700        0.0679325935
  48
        -73.16989651
 C          7.1485107823        0.1454589235       -0.0647709023
 C          5.7800986600        0.8250201489       -0.0088944337
 C          5.6299709380        1.6242599171        1.2849015980
 C          5.5704685721        1.7127361253       -1.2351583268
 O          4.8411340733       -0.2876699633       -0.0273160146
 C          3.5118877929       -0.0931313422        0.0183414845
 O          2.9581937546        0.9907862772        0.0678372128
 N          2.8965329780       -1.2916867726        0.0191782658
 C          1.4622554219       -1.5195472397       -0.0410850722
 C          0.8127146687       -0.9665204796       -1.3293394970
 C          0.0331192667        0.2702640920       -0.8899630014
 C         -0.4779090347       -0.1058177174        0.5050396742
 C          0.7126871699       -0.8375841628        1.1248393430
 N         -1.6642131428       -0.9297487902        0.4118274210
 C         -1.7834159594       -2.2860946984        0.4288508959
 N         -2.9979190738       -2.7212223035        0.2674097155
 C         -3.7652115439       -1.5892722826        0.1169272040
 C         -2.9271104553       -0.4528508031        0.1990631474
 C         -3.4966732735        0.8137028375        0.0600030666
 C         -3.0965455779        2.1743079053        0.0486128405
 C         -4.2278885893        2.9120804616       -0.1486434043
 N         -5.3120705121        2.0920871060       -0.2622772088
 C         -4.9036625632        0.8013027837       -0.1429213336
 N         -5.7085956969       -0.2644757294       -0.2155556203
 C         -5.1416688912       -1.4460650254       -0.0876992697
 H          3.5096525140       -2.0870347223       -0.0668301154
 H          1.3455715021       -2.6031429680        0.0029060975
 H          1.5653031860       -0.7274508960       -2.0777103951
 H          0.1329750510       -1.7098433085       -1.7466196814
 H         -0.7759523375        0.5263729111       -1.5718351290
 H          0.7095480956        1.1188502580       -0.7941500289
 H         -0.7548445983        0.7755054177        1.0890192001
 H          0.4111473727       -1.5409395503        1.8976537577
 H          1.3690629621       -0.0934687001        1.5727622217
 H         -0.9488624040       -2.9414472685        0.5719218393
 H         -2.1015600205        2.5551721463        0.1617304174
 H         -4.3354288302        3.9762684732       -0.2168085818
 H         -5.7924991151       -2.3053522300       -0.1496447432
 H         -6.2634835831        2.3812744608       -0.4148401970
 H          4.6486119130        2.0901016932        1.3288684918
 H          6.3894502452        2.3985641873        1.3229218613
 H          5.7468477458        0.9684386507        2.1446180619
 H          7.9311553327        0.8964870861       -0.0584896113
 H          7.2300982029       -0.4496665075       -0.9698246194
 H          7.2725977247       -0.5089111183        0.7933170698
 H          5.6496330691        1.1196299113       -2.1433923813
 H          4.5870914110        2.1751935834       -1.2020659316
 H          6.3259235156        2.4916668375       -1.2528381375
  48
        -73.16984817
 C          7.1840552173       -0.1075799107        0.8582104183
 C          5.9143085708        0.6926210592        0.5672041846
 C          5.4696162715        1.4646501144        1.8087584715
 C          6.1297010997        1.6302390674       -0.6200909688
 O          4.9321766941       -0.3287220376        0.2294318100
 C          3.6668505049       -0.0145875330       -0.0911383897
 O          3.2055788078        1.1133373985       -0.1349965836
 N          2.9839282897       -1.1454269995       -0.3511735887
 C          1.5958131655       -1.2130559578       -0.7594008675
 C          1.2828068103       -0.4572396220       -2.0563726733
 C         -0.2390902512       -0.3740841510       -2.0452943488
 C         -0.6168701711       -0.1643961857       -0.5624670285
 C          0.6253829377       -0.5783711128        0.2506523802
 N         -1.7895539956       -0.9242664942       -0.2015932568
 C         -1.8813828577       -2.2809804900       -0.1042222848
 N         -3.0627726951       -2.7177642745        0.2127642507
 C         -3.8377003685       -1.5872996312        0.3353717799
 C         -3.0405247474       -0.4477249044        0.0701977361
 C         -3.6356426639        0.8143184450        0.1312085212
 C         -3.2880861098        2.1778180248       -0.0504319212
 C         -4.4202330326        2.9052763165        0.1778526354
 N         -5.4567062002        2.0770176780        0.4912588715
 C         -5.0163420079        0.7917258454        0.4714972707
 N         -5.7783061735       -0.2767902571        0.7286366532
 C         -5.1916744306       -1.4531427570        0.6594139728
 H          3.5118159037       -2.0007566727       -0.2780452406
 H          1.3637093511       -2.2724317737       -0.8897247317
 H          1.7216660929        0.5384523458       -1.9939220562
 H          1.6684702314       -0.9623052317       -2.9387883677
 H         -0.6666873387       -1.3157990976       -2.3935545950
 H         -0.6171455152        0.4266788305       -2.6766654900
 H         -0.8590268784        0.8811810942       -0.3709322820
 H          0.3703920772       -1.2547948255        1.0642805101
 H          1.1004335219        0.3066374835        0.6716289724
 H         -1.0420106050       -2.9256113137       -0.2740204138
 H         -2.3293919071        2.5754923899       -0.3170016797
 H         -4.5580214026        3.9673556781        0.1373787745
 H         -5.8074258088       -2.3157245680        0.8651293716
 H         -6.3994348299        2.3567020702        0.7037399220
 H          5.2826637185        0.7760433406        2.6295974324
 H          4.5577651464        2.0192548198        1.6014485292
 H          6.2480352100        2.1623953478        2.1002847853
 H          7.4697538624       -0.6810909421       -0.0188553933
 H          7.0084055009       -0.7949541452        1.6807231160
 H          7.9902747402        0.5682340950        1.1224046214
 H          6.4117409515        1.0582345453       -1.5010286913
 H          5.2170342671        2.1803320884       -0.8358937590
 H          6.9200786803        2.3362140582       -0.3863312491
  48
        -73.16984330
 C          6.0652354974        1.8237362150       -0.3485231332
 C          5.8928852844        0.6813047460        0.6516495483
 C          7.1893595688       -0.1179462761        0.7841618237
 C          5.4411044563        1.2024263307        2.0153095996
 O          4.9368624132       -0.2931070019        0.1434195321
 C          3.6584890491        0.0340040103       -0.1038879993
 O          3.1666275409        1.1389578200        0.0513976125
 N          3.0012147330       -1.0553766480       -0.5445651994
 C          1.6127112598       -1.0880984590       -0.9560744053
 C          1.2783980535       -0.1433731505       -2.1169659244
 C         -0.2443671707       -0.0913852893       -2.0879098700
 C         -0.6129676901       -0.1121964493       -0.5886178128
 C          0.6347449166       -0.6433583072        0.1444463325
 N         -1.7834511868       -0.9187494076       -0.3407155026
 C         -1.8769176027       -2.2740278164       -0.4547492926
 N         -3.0572017782       -2.7537832187       -0.2020679633
 C         -3.8295999827       -1.6554394774        0.0989650427
 C         -3.0317967581       -0.4892674612        0.0097729368
 C         -3.6236361985        0.7485254765        0.2708365929
 C         -3.2734415573        2.1229627851        0.3041734211
 C         -4.4031045156        2.8076387080        0.6478298166
 N         -5.4407448767        1.9423978517        0.8306288182
 C         -5.0030739894        0.6751602120        0.6090357244
 N         -5.7657228673       -0.4195841066        0.7008261839
 C         -5.1816375248       -1.5716082532        0.4472828111
 H          3.5539914975       -1.8934973552       -0.6311240197
 H          1.4025233940       -2.1183167441       -1.2520475395
 H          1.6993022449        0.8382528226       -1.8995410041
 H          1.6682780595       -0.4958991826       -3.0689263036
 H         -0.6577214611       -0.9786163073       -2.5705834394
 H         -0.6417075388        0.7874005494       -2.5905916905
 H         -0.8533521489        0.8919909064       -0.2388072889
 H          0.3876423304       -1.4506487720        0.8313029805
 H          1.0991498036        0.1627181047        0.7105165317
 H         -1.0397488850       -2.8851669960       -0.7279533889
 H         -2.3146427316        2.5558942322        0.1002211479
 H         -4.5382774407        3.8631744130        0.7749480420
 H         -5.7982830956       -2.4548293467        0.5198578936
 H         -6.3821098565        2.1874524762        1.0874325337
 H          7.9791676868        0.5246505665        1.1581032255
 H          7.4793495776       -0.5164115855       -0.1838047487
 H          7.0452721742       -0.9462384919        1.4719178156
 H          6.8371757173        2.5005996752        0.0032020066
 H          5.1340435289        2.3746935461       -0.4551301234
 H          6.3529052523        1.4289788643       -1.3202199439
 H          5.2839284819        0.3712817579        2.6990343012
 H          6.2023836475        1.8594979913        2.4232629127
 H          4.5111393448        1.7571476957        1.9177673866
  48
        -73.16984461
 C          5.6231435539        1.3050859943        1.5699251219
 C          5.7766732022        0.8170492750        0.1299236462
 C          5.5623089895        1.9559520739       -0.8663861265
 C          7.1482364576        0.1737561475       -0.0760509894
 O          4.8426404766       -0.2675822160       -0.1370940566
 C          3.5129879110       -0.0941184293       -0.0444547818
 O          2.9555122598        0.9507394410        0.2408669209
 N          2.9020792023       -1.2676053774       -0.2996362437
 C          1.4684972568       -1.4854508355       -0.4019694848
 C          0.8108708033       -0.6790598414       -1.5439339553
 C          0.0351758718        0.4399595204       -0.8536505718
 C         -0.4682483456       -0.2152127461        0.4371385476
 C          0.7211156843       -1.0663133356        0.8833393940
 N         -1.6611435578       -0.9954660682        0.1871542022
 C         -1.7859772575       -2.3208210947       -0.0994131982
 N         -3.0059049254       -2.7093559873       -0.3255807905
 C         -3.7713238499       -1.5733078495       -0.1983045967
 C         -2.9262547866       -0.4836690866        0.1169198058
 C         -3.4931372355        0.7812810261        0.2799464705
 C         -3.0874223766        2.1104917931        0.5631367120
 C         -4.2202138722        2.8720951517        0.5659012225
 N         -5.3105499564        2.0967884040        0.3002028881
 C         -4.9049053728        0.8128423920        0.1160093836
 N         -5.7164570390       -0.2104567118       -0.1725696270
 C         -5.1518632028       -1.3895549209       -0.3298680075
 H          3.5179767041       -2.0226432798       -0.5574088381
 H          1.3573356840       -2.5549986258       -0.5851035288
 H          1.5585905312       -0.2907740199       -2.2322106663
 H          0.1275923799       -1.3207581549       -2.1007299713
 H         -0.7780109920        0.8311914025       -1.4627564763
 H          0.7128508624        1.2506929756       -0.5887350969
 H         -0.7347664642        0.5273430344        1.1932638902
 H          0.4172907591       -1.9185598368        1.4868650787
 H          1.3798565645       -0.4381403168        1.4804072339
 H         -0.9509377377       -2.9904724820       -0.1272360247
 H         -2.0882139697        2.4581999355        0.7321564813
 H         -4.3248033243        3.9243660707        0.7405681511
 H         -5.8080737033       -2.2136916172       -0.5665042838
 H         -6.2642601960        2.4112777882        0.2409853038
 H          5.6454913752        1.5821969126       -1.8843750709
 H          6.3129982390        2.7233635562       -0.7073285672
 H          4.5760848613        2.3934313432       -0.7322774708
 H          5.7332767891        0.4716937044        2.2600790741
 H          4.6432357275        1.7533974059        1.7140552082
 H          6.3852810836        2.0472887512        1.7844860423
 H          7.2780148481       -0.6528015663        0.6166360176
 H          7.2303116414       -0.2068871192       -1.0901140343
 H          7.9271712038        0.9092087520        0.0942117705
  48
        -73.16982711
 C          4.2225730699        2.3506400984        1.4814348945
 C          4.5705971367        1.7340995642        0.1270908308
 C          3.8836174454        2.4822586129       -1.0151135115
 C          6.0855012585        1.7155316562       -0.0795594534
 O          4.2013688925        0.3267477170        0.1027959956
 C          2.9267720985       -0.0775565058        0.2711691942
 O          1.9748121216        0.6682828117        0.4198585148
 N          2.9103585651       -1.4226771902        0.2731835520
 C          1.7929682184       -2.3553948080        0.2684934797
 C          1.4615044539       -2.8297124612       -1.1540811185
 C          0.5910626488       -1.7082707509       -1.7201079601
 C         -0.1730155783       -1.1236798150       -0.5151379862
 C          0.4733453381       -1.7481693643        0.7388551844
 N         -1.5915255569       -1.3768969048       -0.5624466406
 C         -2.2276274995       -2.5276774655       -0.9183103715
 N         -3.5238792416       -2.4701287824       -0.8400337067
 C         -3.7965804004       -1.1988432326       -0.3883086337
 C         -2.5775872288       -0.5052283494       -0.2006464202
 C         -2.6143952825        0.8053489071        0.2779337956
 C         -1.7154422463        1.8424242778        0.6376326279
 C         -2.4809635190        2.8952628917        1.0481004673
 N         -3.8054919743        2.5774772183        0.9661721972
 C         -3.9258949975        1.3050938133        0.5040939775
 N         -5.0864725250        0.6664192729        0.3180177654
 C         -5.0187675151       -0.5736314820       -0.1199355178
 H          3.8143491428       -1.8406810408        0.1018340808
 H          2.0915919256       -3.1878146213        0.9114156417
 H          2.3539024159       -3.0008483271       -1.7515789199
 H          0.8987202763       -3.7603742821       -1.0914183658
 H         -0.0889662549       -2.0552089991       -2.4956779827
 H          1.2212039312       -0.9289479476       -2.1484558153
 H         -0.0549450435       -0.0401215895       -0.4883855608
 H         -0.1667106870       -2.5455567279        1.1175965033
 H          0.6152963431       -1.0105404545        1.5243533363
 H         -1.6986422603       -3.4032535823       -1.2383353434
 H         -0.6437435617        1.8086102759        0.6107590539
 H         -2.1691179564        3.8594132123        1.3971636487
 H         -5.9568984901       -1.0886570373       -0.2627483399
 H         -4.5766376666        3.1745928483        1.2128264231
 H          2.8055590657        2.4776980806       -0.8749115025
 H          4.1165651717        2.0078365717       -1.9657219786
 H          4.2311801610        3.5101099386       -1.0368202081
 H          4.5776582524        3.3756165246        1.5157176032
 H          4.6929446912        1.7834622164        2.2814048784
 H          3.1461594174        2.3448366429        1.6340466003
 H          6.5613931821        1.1527267863        0.7182851807
 H          6.3247210410        1.2437619027       -1.0282610872
 H          6.4676380559        2.7307174802       -0.0785144004
  48
        -73.16981264
 C          4.0937989675        3.3134561268        0.1898658240
 C          3.9428870161        1.9484333808        0.8616373657
 C          5.3084743603        1.3870913108        1.2536712189
 C          3.0147192024        2.0442230985        2.0722862673
 O          3.3341188762        1.1195657660       -0.1700782172
 C          3.0447977154       -0.1736198773        0.0416706029
 O          3.2310179329       -0.7901473131        1.0773028641
 N          2.5218096387       -0.7101124919       -1.0762774643
 C          1.8982509645       -2.0225141585       -1.0964401401
 C          1.4580744352       -2.3744212113       -2.5187117194
 C          0.0435068133       -1.7828967179       -2.6795831830
 C         -0.3592106800       -1.2728021886       -1.2822011239
 C          0.5797237300       -2.0095455153       -0.3190688816
 N         -1.7492123630       -1.4435401045       -0.9459447847
 C         -2.5669274923       -2.5081503955       -1.1823745534
 N         -3.7675264560       -2.3774017907       -0.7034750294
 C         -3.7723099653       -1.1510618864       -0.0793702890
 C         -2.4945441846       -0.5604250157       -0.2158889357
 C         -2.2596606738        0.6827880651        0.3753843464
 C         -1.2010845109        1.6124850629        0.5462803568
 C         -1.7044267030        2.6500525767        1.2767194096
 N         -3.0161440112        2.4255736186        1.5712584745
 C         -3.3890027635        1.2299599219        1.0438097624
 N         -4.6072908949        0.6914973397        1.1641174801
 C         -4.7929848180       -0.4884588106        0.6109346162
 H          2.3448456426       -0.0808125045       -1.8443414374
 H          2.6117183012       -2.7321153738       -0.6699912105
 H          2.1549460329       -1.9828903151       -3.2557256188
 H          1.4324158472       -3.4571631769       -2.6221813948
 H         -0.6538782769       -2.5421109782       -3.0259258186
 H          0.0249182110       -0.9692831811       -3.4020249440
 H         -0.1674940938       -0.1991277877       -1.2139539167
 H          0.2311737286       -3.0295144012       -0.1584264935
 H          0.6745258044       -1.5152097475        0.6464088523
 H         -2.2472597240       -3.3793579312       -1.7183312199
 H         -0.1921017518        1.5238358633        0.1942642170
 H         -1.2116757158        3.5416908084        1.6101591773
 H         -5.7746719554       -0.9249529190        0.7169637931
 H         -3.6187554352        3.0307048350        2.1033435812
 H          5.9414923719        1.2968091627        0.3739549779
 H          5.1957043490        0.4049652568        1.7065916282
 H          5.7835740429        2.0523158178        1.9674866289
 H          4.7222090718        3.2248106238       -0.6916070361
 H          4.5466662869        4.0138909064        0.8832642046
 H          3.1203374980        3.6882918112       -0.1131515207
 H          2.0364606475        2.4106687568        1.7679210039
 H          2.8943814256        1.0665208429        2.5327007133
 H          3.4380922243        2.7271545159        2.8015587172
  48
        -73.16979314
 C          3.9258741082        2.3896479038       -1.2445568871
 C          4.5796722559        1.7880438667       -0.0007715851
 C          6.1005044259        1.7575648305       -0.1565085087
 C          4.1855213058        2.5572868138        1.2595035997
 O          4.2180604948        0.3846716023        0.1296537116
 C          2.9405920105       -0.0086766912        0.3019189471
 O          1.9807213225        0.7408103433        0.3367136575
 N          2.9309763583       -1.3453923619        0.4548485596
 C          1.8172645034       -2.2807200472        0.5115511726
 C          1.5074305836       -2.8773444996       -0.8692935490
 C          0.6325332873       -1.8182350679       -1.5383833177
 C         -0.1564850497       -1.1458981631       -0.3972085053
 C          0.4894711247       -1.6418337014        0.9134301810
 N         -1.5684536538       -1.4355268655       -0.4347104732
 C         -2.1726494113       -2.6309124268       -0.6830610375
 N         -3.4707341011       -2.5984394896       -0.6236088898
 C         -3.7791305275       -1.2962153102       -0.3014043437
 C         -2.5794130828       -0.5573989562       -0.1701650109
 C         -2.6539962617        0.7926411536        0.1761508354
 C         -1.7850647507        1.8830832250        0.4386563653
 C         -2.5807874259        2.9517242566        0.7350404875
 N         -3.8960073991        2.5937312281        0.6729739313
 C         -3.9798558003        1.2789352817        0.3393633254
 N         -5.1224477074        0.5962833688        0.2053876349
 C         -5.0191947523       -0.6785539411       -0.1081663969
 H          3.8417730282       -1.7720095016        0.3570198095
 H          2.1106264387       -3.0544296726        1.2259371800
 H          2.4088436773       -3.0883021313       -1.4399562482
 H          0.9538354656       -3.8058379402       -0.7341587381
 H         -0.0315178080       -2.2368099699       -2.2921870680
 H          1.2601305974       -1.0684873068       -2.0200776365
 H         -0.0624888358       -0.0620689490       -0.4674366623
 H         -0.1467644138       -2.4032623552        1.3654597099
 H          0.6225379065       -0.8306040264        1.6244283628
 H         -1.6189548202       -3.5199352789       -0.9108576911
 H         -0.7126562023        1.8746826739        0.4237966061
 H         -2.2965441974        3.9535012013        0.9888525779
 H         -5.9426826973       -1.2286159492       -0.2097848087
 H         -4.6844610037        3.1924358435        0.8516375633
 H          6.3718173142        1.1809573696       -1.0361706568
 H          6.5527708288        1.2943455114        0.7156894653
 H          6.4784311534        2.7689136957       -0.2611400446
 H          4.2720212751        3.4092579701       -1.3798636934
 H          2.8440923611        2.3959802570       -1.1367185683
 H          4.1881217385        1.8052484586       -2.1236209739
 H          4.5322095655        3.5827764837        1.1822742805
 H          3.1049226605        2.5581061213        1.3792646981
 H          4.6346325074        2.0940726947        2.1350687595
  48
        -73.16979114
 C          3.8658754439        2.4038236702       -1.2471064002
 C          4.5443748055        1.8032287462       -0.0161288919
 C          6.0623102227        1.7803805056       -0.1989947319
 C          4.1689585024        2.5685505746        1.2522456818
 O          4.1919599799        0.3979300082        0.1188914544
 C          2.9194552569       -0.0017818150        0.3122859309
 O          1.9566297810        0.7432938142        0.3614477791
 N          2.9189246971       -1.3381894091        0.4660836565
 C          1.8131864242       -2.2811788832        0.5464281167
 C          1.5149139993       -2.9158821124       -0.8198187492
 C          0.6437111472       -1.8757692329       -1.5232187809
 C         -0.1517831141       -1.1724690819       -0.4053740689
 C          0.4776932027       -1.6436577720        0.9221643211
 N         -1.5660212490       -1.4498979677       -0.4484065202
 C         -2.1837300891       -2.6375874217       -0.7000573795
 N         -3.4814809891       -2.5901269068       -0.6414831125
 C         -3.7751221904       -1.2854337644       -0.3152765552
 C         -2.5669613856       -0.5614094950       -0.1803561351
 C         -2.6249397258        0.7874589534        0.1732834831
 C         -1.7425403013        1.8649931713        0.4440798593
 C         -2.5252641054        2.9415638339        0.7463150445
 N         -3.8449093286        2.6006686120        0.6798983793
 C         -3.9448048284        1.2891576424        0.3379248021
 N         -5.0954322490        0.6211624069        0.1990371786
 C         -5.0077296163       -0.6533537206       -0.1204604127
 H          3.8306165605       -1.7603578100        0.3571472690
 H          2.1094074204       -3.0323293470        1.2836348039
 H          2.4205783505       -3.1408565911       -1.3782201174
 H          0.9611044721       -3.8409005124       -0.6635364478
 H         -0.0153515767       -2.3150738476       -2.2693749291
 H          1.2741822732       -1.1397827046       -2.0221131154
 H         -0.0481007668       -0.0909367810       -0.4976845552
 H         -0.1601092283       -2.4024574335        1.3764911284
 H          0.5955914635       -0.8208880172        1.6223949945
 H         -1.6406458727       -3.5327512740       -0.9293816749
 H         -0.6702740711        1.8425172739        0.4316825292
 H         -2.2289209997        3.9380384562        1.0070925946
 H         -5.9380605123       -1.1911663715       -0.2252540847
 H         -4.6258992166        3.2079443806        0.8623504366
 H          6.5322430809        1.3167746323        0.6636041589
 H          6.4335432838        2.7938199451       -0.3073433465
 H          6.3205385943        1.2076593161       -1.0850989536
 H          2.7861997363        2.4059821866       -1.1199221632
 H          4.1144953293        1.8215967736       -2.1315574785
 H          4.2056633128        3.4249090672       -1.3872459328
 H          3.0906841515        2.5634551802        1.3914390063
 H          4.6362411454        2.1064570488        2.1188440549
 H          4.5086875606        3.5960016810        1.1704179911
  48
        -73.16980637
 C          6.1289363872        1.6579478556       -0.2512056142
 C          4.6057514538        1.7251606940       -0.1347493704
 C          4.1965764802        2.6463269231        1.0139578782
 C          3.9868256804        2.1798080084       -1.4563410756
 O          4.2214083615        0.3521758768        0.1560609393
 C          2.9354025735       -0.0027886166        0.3473492238
 O          1.9852573921        0.7556943378        0.2688527157
 N          2.9043186988       -1.3103422073        0.6631264296
 C          1.7769580932       -2.2188770153        0.8106760004
 C          1.4837557961       -2.9748824914       -0.4936749517
 C          0.6332885606       -1.9958776907       -1.3019493132
 C         -0.1667080106       -1.1820730307       -0.2654931068
 C          0.4512051946       -1.5209073003        1.1071645287
 N         -1.5811741857       -1.4604759222       -0.2921490588
 C         -2.1962111599       -2.6705587119       -0.4063423902
 N         -3.4945566831       -2.6179214462       -0.3706867346
 C         -3.7917211830       -1.2834876928       -0.2093849088
 C         -2.5849862502       -0.5468689989       -0.1483737827
 C         -2.6472083714        0.8351802335        0.0364681515
 C         -1.7686557862        1.9395440362        0.1832368153
 C         -2.5551437570        3.0439307871        0.3408056730
 N         -3.8736712831        2.6951112879        0.3008911252
 C         -3.9689687868        1.3514083112        0.1214205719
 N         -5.1178646255        0.6701083310        0.0504971206
 C         -5.0265817630       -0.6338146620       -0.1095287249
 H          3.8107547280       -1.7561127700        0.6385914298
 H          2.0473784102       -2.9029198042        1.6193877673
 H          2.3923173611       -3.2617417336       -1.0180627880
 H          0.9169118659       -3.8748627067       -0.2579946951
 H         -0.0228753857       -2.4959965113       -2.0116743209
 H          1.2780556032       -1.3163875893       -1.8592733615
 H         -0.0589924342       -0.1158096654       -0.4654872469
 H         -0.2025196671       -2.2140907163        1.6373037489
 H          0.5830806584       -0.6302011150        1.7158483002
 H         -1.6499934286       -3.5857704535       -0.5196582451
 H         -0.6963277065        1.9181093268        0.1856731380
 H         -2.2620250613        4.0653501528        0.4804869417
 H         -5.9560221372       -1.1809683033       -0.1592548658
 H         -4.6576048469        3.3183537346        0.3961230286
 H          4.6195544959        2.2871343238        1.9493219745
 H          3.1137969080        2.6757022287        1.1075725790
 H          4.5607879983        3.6503744455        0.8213929241
 H          6.4102348947        0.9759473235       -1.0484473807
 H          6.5560230365        1.2982808036        0.6804805326
 H          6.5237175054        2.6446041495       -0.4685135755
 H          2.9031098723        2.2095671555       -1.3749913994
 H          4.3484277363        3.1725288019       -1.7043771220
 H          4.2608968804        1.4920841194       -2.2531850427
  48
        -73.16956454
 C          6.9425452347        0.5724637023        0.9667603606
 C          5.5484108307        1.1047381663        0.6345839520
 C          4.9230542237        1.7732718601        1.8582604305
 C          5.6088968956        2.0664533533       -0.5514853402
 O          4.7981336094       -0.0906936942        0.2750460184
 C          3.5054434543       -0.0326235191       -0.0840436231
 O          2.8327471668        0.9822122646       -0.1509424217
 N          3.0648727003       -1.2765795855       -0.3517568458
 C          1.7301793090       -1.6077978648       -0.8092944567
 C          1.3554028014       -0.9454802893       -2.1434713843
 C         -0.1649277646       -1.0156262666       -2.1510128371
 C         -0.5447197632       -0.6516364562       -0.7062031892
 C          0.6224012085       -1.1589732072        0.1663689731
 N         -1.8173572443       -1.2020393029       -0.3140799105
 C         -2.1393253272       -2.5244034255       -0.2298588766
 N         -3.3645055198       -2.7561683299        0.1333972221
 C         -3.9241640037       -1.5114563349        0.3087232563
 C         -2.9514558166       -0.5217681477        0.0279226139
 C         -3.3108291336        0.8226925530        0.1471579445
 C         -2.7339228383        2.1091975202       -0.0118176978
 C         -3.7089054074        3.0162777969        0.2875726332
 N         -4.8629070380        2.3732805691        0.6244816875
 C         -4.6586875856        1.0319864669        0.5498641375
 N         -5.5864199009        0.1064056349        0.8159588123
 C         -5.2193609811       -1.1519904997        0.6952235508
 H          3.7477200563       -2.0123602255       -0.2632289700
 H          1.7065103091       -2.6931771947       -0.9231662456
 H          1.6834285313        0.0937953346       -2.1233400679
 H          1.8072091790       -1.4461005105       -2.9964267688
 H         -0.4954253885       -2.0311031481       -2.3732824501
 H         -0.6160189599       -0.3383486180       -2.8730144205
 H         -0.6276089451        0.4318593507       -0.6128086717
 H          0.3042796652       -1.9753559315        0.8124892116
 H          0.9968840283       -0.3530688968        0.7946169032
 H         -1.4335803765       -3.3021914050       -0.4452234483
 H         -1.7296037430        2.3411826568       -0.3055127628
 H         -3.6569742862        4.0867689428        0.2832707179
 H         -5.9685725895       -1.8991142244        0.9098282659
 H         -5.7319760282        2.8067564141        0.8871869852
 H          4.8526517533        1.0612719648        2.6774490899
 H          3.9256490541        2.1356238719        1.6215723373
 H          5.5383327017        2.6118897091        2.1679256244
 H          7.3632221358        0.0692559148        0.1009786411
 H          6.8825079354       -0.1378144075        1.7863339742
 H          7.5897749432        1.3946911978        1.2524284164
 H          6.0236430852        1.5612651823       -1.4207299381
 H          4.6123760249        2.4256192345       -0.7964130873
 H          6.2372749828        2.9145916056       -0.2994248894
  48
        -73.16949090
 C          6.2555595915        0.5569005602       -0.7092068213
 C          5.6328734428        0.8269424919        0.6600243960
 C          6.5865349476        0.4022977039        1.7769370941
 C          5.2469903252        2.2975974875        0.8126762115
 O          4.4665097372       -0.0227398077        0.8593765251
 C          3.3920778663        0.0541296199        0.0578242514
 O          3.2697234092        0.8063313647       -0.8935879346
 N          2.4663164198       -0.8313663593        0.4731749801
 C          1.1868329750       -1.0645684288       -0.1657137312
 C          1.3052820641       -1.5606131366       -1.6221610979
 C          0.1091707904       -0.9587842981       -2.3789206273
 C         -0.7146203762       -0.1842241288       -1.3425624544
 C          0.3115565418        0.1910251515       -0.2708016370
 N         -1.7827291778       -0.9765537263       -0.7714518241
 C         -1.8771218565       -2.3301649283       -0.6465534360
 N         -2.9513024595       -2.7395310565       -0.0401006187
 C         -3.6378219896       -1.5920749555        0.2839310588
 C         -2.8996786428       -0.4725381926       -0.1663017813
 C         -3.4064892151        0.8061240286        0.0711241816
 C         -3.0493021147        2.1607883253       -0.1505701527
 C         -4.0571595034        2.9205999038        0.3692558773
 N         -5.0234173264        2.1203223468        0.9039257979
 C         -4.6587268787        0.8209527524        0.7443070811
 N         -5.3722277256       -0.2292704329        1.1647596582
 C         -4.8625413194       -1.4219542706        0.9383030954
 H          2.7232417586       -1.3943002196        1.2684088570
 H          0.6728309657       -1.8110926433        0.4446130561
 H          2.2397943895       -1.1921729872       -2.0420610691
 H          1.3188311726       -2.6478753059       -1.6662593646
 H         -0.4931626170       -1.7151711740       -2.8782618688
 H          0.4607856123       -0.2585854166       -3.1342762557
 H         -1.1865541904        0.6986070871       -1.7798276212
 H         -0.1528609811        0.4620644168        0.6758341642
 H          0.9225352373        1.0200556231       -0.6254178235
 H         -1.1324728288       -3.0011425615       -1.0238556307
 H         -2.1593197507        2.5259747608       -0.6221649805
 H         -4.1521918121        3.9878419320        0.3949730520
 H         -5.4379899279       -2.2683804363        1.2819301149
 H         -5.8705033835        2.4277086002        1.3512188729
 H          6.8223929478       -0.6536918668        1.6811046617
 H          6.1215415544        0.5679098730        2.7444753257
 H          7.5021810536        0.9805673116        1.7163041466
 H          6.4863826871       -0.5009598827       -0.8121292111
 H          7.1701588519        1.1320338090       -0.8115071646
 H          5.5670677575        0.8447914841       -1.4998412533
 H          4.7703050250        2.4600534856        1.7766190472
 H          6.1370959082        2.9149827091        0.7475021464
 H          4.5558966132        2.5894324867        0.0257654551
  48
        -73.16944954
 C          5.2698078413        1.9810562906        1.3386325703
 C          5.6379151807        0.5947189381        0.8116852302
 C          6.2622404193        0.6795280231       -0.5805657268
 C          6.5820915437       -0.1162574714        1.7814641068
 O          4.4607824032       -0.2629288510        0.7841174245
 C          3.3900737576        0.0307216153        0.0288509103
 O          3.2770755763        1.0069343211       -0.6924509422
 N          2.4572033643       -0.9262406686        0.1948303948
 C          1.1719598287       -0.9667782840       -0.4726393894
 C          1.2764798405       -1.0414920737       -2.0104524787
 C          0.0817030898       -0.2439751217       -2.5603409106
 C         -0.7321983487        0.2108362738       -1.3426756538
 C          0.3048179570        0.2731621004       -0.2186767230
 N         -1.7952847793       -0.7113405259       -1.0045630377
 C         -1.8923869010       -2.0451083821       -1.2662425651
 N         -2.9586725866       -2.6104893268       -0.7839348601
 C         -3.6361161929       -1.6024732527       -0.1373742144
 C         -2.9011831487       -0.4004114993       -0.2641099892
 C         -3.4000281660        0.7583676963        0.3331708196
 C         -3.0426997295        2.1211684856        0.4969896314
 C         -4.0391648534        2.7012606882        1.2276523271
 N         -4.9982643069        1.7804135176        1.5315903663
 C         -4.6402527398        0.5798809303        1.0050336129
 N         -5.3497161896       -0.5476044745        1.1242001225
 C         -4.8488307303       -1.6264318288        0.5596904831
 H          2.7028192550       -1.6734270739        0.8244961887
 H          0.6569446595       -1.8506129923       -0.0883751213
 H          2.2122985132       -0.5796375936       -2.3206284609
 H          1.2779251354       -2.0743806196       -2.3533292471
 H         -0.5276155780       -0.8247955416       -3.2500082265
 H          0.4354055350        0.6394707425       -3.0884705342
 H         -1.2070890063        1.1799179801       -1.5126442414
 H         -0.1493548057        0.2751872750        0.7707471929
 H          0.9185843614        1.1651146125       -0.3377824600
 H         -1.1561122967       -2.5811944563       -1.8297666419
 H         -2.1601483578        2.6064854899        0.1318434674
 H         -4.1307759680        3.7175392613        1.5554885748
 H         -5.4215824953       -2.5361871732        0.6599304836
 H         -5.8367068938        1.9466923115        2.0621029668
 H          5.5798942308        1.1701659405       -1.2702697177
 H          6.4809657296       -0.3186439656       -0.9529658563
 H          7.1839200479        1.2501935544       -0.5307059304
 H          4.7931612737        1.8957511069        2.3124832948
 H          4.5840863017        2.4744069519        0.6542066020
 H          6.1676902666        2.5832049202        1.4335850925
 H          6.1151368501       -0.2010341513        2.7584993799
 H          6.8057646562       -1.1143995005        1.4159277160
 H          7.5047991057        0.4465454690        1.8733084803
  48
        -73.16923672
 C          3.1989054966        2.5597615223        0.5770627234
 C          4.2149145690        1.4500314774        0.3036997969
 C          5.0968315990        1.8177053519       -0.8883376584
 C          5.0536237775        1.1817001949        1.5529043976
 O          3.3992157850        0.2844188942       -0.0125011054
 C          3.9568595688       -0.8924561332       -0.2989259209
 O          5.1594901413       -1.1167653139       -0.3467027037
 N          3.0625595476       -1.8720561612       -0.5347242411
 C          1.6114347685       -1.8008315524       -0.5693594055
 C          1.0612203635       -0.8117796274       -1.6222375212
 C          0.3551436745        0.2925471180       -0.8370937211
 C         -0.1408617848       -0.4047656538        0.4348559403
 C          0.9996194570       -1.3614723234        0.7777145582
 N         -1.3996719781       -1.0783961159        0.1943123628
 C         -1.6546718441       -2.3846286739       -0.0925077141
 N         -2.9093388636       -2.6543724182       -0.3010731144
 C         -3.5614731951       -1.4510533640       -0.1600367751
 C         -2.6120662108       -0.4488215488        0.1462398818
 C         -3.0524181069        0.8634869260        0.3248515242
 C         -2.5174353443        2.1455759814        0.6106391819
 C         -3.5718290014        3.0120115092        0.6342386375
 N         -4.7348773645        2.3467224836        0.3791368431
 C         -4.4567408402        1.0312276246        0.1815350498
 N         -5.3663509985        0.0921396615       -0.1011195480
 C         -4.9198153154       -1.1348593546       -0.2711944078
 H          3.4925865942       -2.7533532961       -0.7687904691
 H          1.2914207590       -2.8136237796       -0.8182572797
 H          1.8640386819       -0.4169084949       -2.2408544869
 H          0.3529088523       -1.3267955942       -2.2709412240
 H         -0.4600127446        0.7476067200       -1.3970815513
 H          1.0691540015        1.0615899337       -0.5540679904
 H         -0.3237756418        0.3082953957        1.2434074173
 H          0.6692856358       -2.2048009813        1.3800798796
 H          1.7505798987       -0.8110375379        1.3409247468
 H         -0.8896843318       -3.1325255780       -0.1336713797
 H         -1.4880869052        2.3951691320        0.7690756707
 H         -3.5730650572        4.0681203640        0.8167047477
 H         -5.6557365157       -1.8905779220       -0.5018778743
 H         -5.6550117993        2.7510878760        0.3364100333
 H          5.6341863067        2.7356594900       -0.6729337841
 H          4.4850237222        1.9639176182       -1.7757916072
 H          5.8152427112        1.0255253376       -1.0845348808
 H          2.5163352169        2.2551119538        1.3656090159
 H          2.6295492386        2.7802818420       -0.3215545444
 H          3.7212118710        3.4577868674        0.8897132424
 H          4.4099279852        0.9109847156        2.3869004430
 H          5.7521754151        0.3687797561        1.3702829485
 H          5.6140822000        2.0739372722        1.8127625916
  48
        -73.16664009
 C          6.0796180553        0.7772389292       -0.7655727663
 C          4.9600326714        1.6587139080       -0.2132429038
 C          5.5262756373        2.7074800401        0.7448700827
 C          4.1775910896        2.3303875803       -1.3414772130
 O          4.0659645127        0.8736029673        0.6243329202
 C          3.3696063440       -0.1730397184        0.1352796118
 O          3.3954576887       -0.5444005340       -1.0241835832
 N          2.6727373916       -0.7185398656        1.1468205443
 C          1.7168453858       -1.8158649064        1.1801255329
 C          1.5446789351       -2.5583925330       -0.1431102322
 C          0.5593780604       -1.7064359568       -0.9453862438
 C         -0.3065683344       -0.9591856266        0.0907327095
 C          0.3014495927       -1.2936409013        1.4674118036
 N         -1.6970621205       -1.3396040807        0.0234694677
 C         -2.1910479360       -2.6101186300        0.0422151301
 N         -3.4869930313       -2.6822771061       -0.0067600321
 C         -3.9133575249       -1.3750463079       -0.0586139848
 C         -2.7863394850       -0.5182736736       -0.0370648580
 C         -2.9942017865        0.8624180029       -0.0751092210
 C         -2.2413097670        2.0649664103       -0.0688961347
 C         -3.1393640549        3.0913125936       -0.1264227526
 N         -4.4108669376        2.6017435582       -0.1669603347
 C         -4.3626725603        1.2440614156       -0.1369496549
 N         -5.4347052908        0.4449761669       -0.1604395512
 C         -5.2086553048       -0.8511485161       -0.1210096265
 H          2.7999243769       -0.2449872079        2.0306857015
 H          2.0514640330       -2.4942382844        1.9715284605
 H          2.4861597991       -2.6840291343       -0.6704292447
 H          1.1246224970       -3.5413170018        0.0682596834
 H         -0.0528065794       -2.3089296686       -1.6141666864
 H          1.1153658491       -0.9913014140       -1.5500832183
 H         -0.2747570361        0.1148977494       -0.0953404380
 H         -0.2833005575       -2.0847899565        1.9367877276
 H          0.3068111798       -0.4308955259        2.1299415462
 H         -1.5539895573       -3.4709839092        0.0902774178
 H         -1.1751398374        2.1656269720       -0.0284103270
 H         -2.9563960988        4.1472667536       -0.1410285940
 H         -6.0743125483       -1.4961148797       -0.1386015193
 H         -5.2567900096        3.1443033639       -0.2126593683
 H          6.2163488391        3.3542487952        0.2137499780
 H          6.0497118161        2.2186394991        1.5615018944
 H          4.7197162442        3.3062852924        1.1581138534
 H          5.6702313498        0.0192662195       -1.4289742058
 H          6.6031167212        0.2839002693        0.0501764922
 H          6.7830726337        1.3891248132       -1.3210861921
 H          3.7637479239        1.5804718806       -2.0111368111
 H          3.3637153519        2.9231026042       -0.9301038851
 H          4.8394855669        2.9794326799       -1.9057663613
  48
        -73.16398354
 C          7.2374690617       -0.2318629904        1.0870686282
 C          6.3220687272       -0.0491337533       -0.1236278452
 C          6.6831426208        1.2257232426       -0.8844511673
 C          6.3828438022       -1.2741849322       -1.0347836686
 O          4.9942318955        0.0751123084        0.4634250715
 C          3.9022397208        0.2551965385       -0.2922930164
 O          3.8751988278        0.3273815676       -1.5097028011
 N          2.8168530064        0.3520845903        0.4964101455
 C          1.4769365977        0.5367341406       -0.0063287351
 C          0.7864637554        1.7613007694        0.6101902006
 C         -0.6927044349        1.3930953766        0.6000785677
 C         -0.6867916699       -0.0684934144        1.0328701800
 C          0.5518766118       -0.6566375998        0.3217152742
 N         -1.8759577209       -0.8388526236        0.7198310177
 C         -1.8505466386       -2.1979470069        0.8640019782
 N         -2.9449104877       -2.8022899362        0.5277864251
 C         -3.7872825613       -1.7948990014        0.1295194540
 C         -3.1339685356       -0.5370148647        0.2511486423
 C         -3.8853657161        0.6037807455       -0.0814718273
 C         -3.7681432631        2.0210541380       -0.1069625848
 C         -4.9557017974        2.5199610490       -0.5551888241
 N         -5.8208777163        1.5028247290       -0.8153148097
 C         -5.2096258358        0.3238236448       -0.5339036914
 N         -5.8122326459       -0.8608238128       -0.6689674376
 C         -5.1002873959       -1.9122825361       -0.3316935594
 H          2.9580558401        0.2715816609        1.4924325562
 H          1.5843545487        0.6533484007       -1.0879359060
 H          1.1312765797        1.8916703828        1.6363230255
 H          0.9939998868        2.6729857196        0.0559595285
 H         -1.0885614533        1.4721256429       -0.4115229040
 H         -1.2704358693        2.0158219537        1.2777668314
 H         -0.5448790698       -0.1194392948        2.1199556152
 H          0.2469613750       -1.1643224505       -0.5927549049
 H          1.0733907255       -1.3780234359        0.9477364481
 H         -0.9852594996       -2.7104845541        1.2339423535
 H         -2.9300249620        2.6209077459        0.1722131262
 H         -5.2417065571        3.5418221148       -0.7050777981
 H         -5.5725167239       -2.8787293280       -0.4222575713
 H         -6.7642352980        1.5864739809       -1.1542901101
 H          6.0099746757        1.3638111927       -1.7271145187
 H          7.7008212993        1.1523074356       -1.2540979858
 H          6.6037001392        2.0882947604       -0.2268815055
 H          7.1585491547        0.6292125071        1.7443635596
 H          8.2650796917       -0.3369700832        0.7562322392
 H          6.9464562080       -1.1198048631        1.6408640345
 H          6.0911253837       -2.1650728050       -0.4833217429
 H          5.7093933070       -1.1485367149       -1.8791651746
 H          7.3945674522       -1.4011125598       -1.4062496960
  48
        -73.16393975
 C          6.4192007776       -1.4594278881       -0.6667531802
 C          6.3242299105       -0.0751362375       -0.0269953758
 C          7.1706934145       -0.0100883423        1.2444596353
 C          6.7426787369        1.0181195222       -1.0089357179
 O          4.9678188296        0.1677434507        0.4474540169
 C          3.9212684192        0.1919358360       -0.3894832872
 O          3.9620149059        0.0142068138       -1.5955901263
 N          2.7954685899        0.4494942282        0.3000436280
 C          1.4865354489        0.5222548347       -0.3049965544
 C          0.7837669638        1.8546338876        0.0038927272
 C         -0.6903456523        1.4875402703        0.1384384521
 C         -0.6448986704        0.1615356574        0.8862277538
 C          0.5353373330       -0.5754657142        0.2208610857
 N         -1.8490004031       -0.6466208498        0.8514954063
 C         -1.8115487312       -1.9208411620        1.3447096056
 N         -2.9203047482       -2.5800793572        1.2365980544
 C         -3.7856635338       -1.7029770106        0.6320870564
 C         -3.1304112659       -0.4647789858        0.3840779429
 C         -3.9007560794        0.5561480489       -0.2001866324
 C         -3.7881862299        1.9141538838       -0.6081599366
 C         -4.9986406437        2.2900970997       -1.1116045706
 N         -5.8742564383        1.2509355619       -1.0469170479
 C         -5.2463149177        0.1818401637       -0.4939574837
 N         -5.8527563112       -0.9887941048       -0.2781414925
 C         -5.1214067440       -1.9220559479        0.2879012079
 H          2.8804439129        0.5731867997        1.2979336119
 H          1.6567279561        0.4034188754       -1.3779977607
 H          1.1577378221        2.2468569200        0.9499334964
 H          0.9576872023        2.5983622320       -0.7693342814
 H         -1.1258292125        1.3318304243       -0.8474934635
 H         -1.2501514705        2.2452083749        0.6803169601
 H         -0.4127394687        0.3515472095        1.9418785337
 H          0.1636647619       -1.1825432893       -0.6042877551
 H          1.0569424135       -1.2333270664        0.9129866337
 H         -0.9257914472       -2.3278298738        1.7898399869
 H         -2.9384724369        2.5573270661       -0.5419314426
 H         -5.2937352103        3.2385992118       -1.5137187206
 H         -5.5960237694       -2.8721912328        0.4807553040
 H         -6.8345879016        1.2530570966       -1.3465522183
 H          6.8418549327       -0.7692699253        1.9482374035
 H          7.0650008018        0.9652165517        1.7105936715
 H          8.2136400785       -0.1782153267        0.9985021354
 H          5.7930511515       -1.5071875284       -1.5543933004
 H          6.0887158613       -2.2200639164        0.0368560288
 H          7.4477482494       -1.6592339589       -0.9492763972
 H          7.7783999506        0.8703192470       -1.2972524721
 H          6.1193426284        0.9824595892       -1.8991312442
 H          6.6376090594        1.9964445707       -0.5457835191
  48
        -73.16345285
 C          5.1868708598        2.7672403079        0.0824792414
 C          5.5629143092        1.3584812043       -0.3742825986
 C          6.2013897191        1.3946870776       -1.7628827710
 C          6.4952594517        0.6812635899        0.6290496874
 O          4.3625127556        0.5547213651       -0.5658058207
 C          3.5252328458        0.2865787455        0.4459098982
 O          3.6443832489        0.6703408150        1.5976229120
 N          2.5137237753       -0.4830876134        0.0061510069
 C          1.4373738402       -0.9466926907        0.8541345061
 C          1.3115643834       -2.4842605402        0.8150146122
 C         -0.1191864796       -2.7806193306        0.3619349039
 C         -0.5208124015       -1.5377586599       -0.4490017223
 C          0.0739609666       -0.4100906812        0.3840780781
 N         -1.9528550084       -1.4852600423       -0.6729813592
 C         -2.5732864101       -2.5463934029       -1.2711054713
 N         -3.8593813515       -2.4404098641       -1.3708003095
 C         -4.1501696899       -1.2229147775       -0.8088051605
 C         -2.9538562883       -0.5912416313       -0.3680641797
 C         -3.0823008267        0.6950434759        0.1860949770
 C         -2.2787597447        1.7488587713        0.7037927960
 C         -3.1185284997        2.7593082359        1.0700060075
 N         -4.4083861010        2.4098419712        0.8157737402
 C         -4.4267178855        1.1670593857        0.2695855716
 N         -5.5507724937        0.5576208811       -0.1172853291
 C         -5.4056989240       -0.6294539470       -0.6612545544
 H          2.5130692871       -0.7337627212       -0.9709053642
 H          1.6821911360       -0.5756693324        1.8521100456
 H          2.0281668375       -2.8837009517        0.0984421110
 H          1.5254791478       -2.9279028336        1.7838928694
 H         -0.7856717478       -2.8675606459        1.2210816527
 H         -0.1795406604       -3.7015339305       -0.2128280433
 H         -0.0378169326       -1.5692124677       -1.4337672319
 H         -0.5602637461       -0.2377654017        1.2514117925
 H          0.1895248648        0.5127977657       -0.1785448003
 H         -2.0235307124       -3.3920516262       -1.6329075598
 H         -1.2151612857        1.7906690296        0.7937780443
 H         -2.8759985095        3.7116340472        1.4976038500
 H         -6.3002351830       -1.1332884607       -0.9944159053
 H         -5.2278442849        2.9687134342        0.9835195958
 H          6.4306753576        0.3852553613       -2.0919027130
 H          7.1161672251        1.9765632360       -1.7295909870
 H          5.5158684616        1.8452674036       -2.4748160473
 H          4.7089647994        2.7309429100        1.0584533299
 H          4.4994540622        3.2197096509       -0.6285710305
 H          6.0814042521        3.3779074063        0.1501016408
 H          6.0253110769        0.6366596131        1.6085187021
 H          6.7231436616       -0.3309094949        0.3028905349
 H          7.4183850490        1.2465854623        0.7059834691
  48
        -73.16326243
 C          6.2142527957        0.0048941016       -1.9322216983
 C          5.5087605389        0.8815333953       -0.8973183129
 C          6.4022106208        1.0979783888        0.3231054506
 C          5.0867563054        2.2127978406       -1.5174391014
 O          4.3330625341        0.1040114751       -0.5279789153
 C          3.4510375099        0.5478843481        0.3789046336
 O          3.5090019286        1.6095263730        0.9772828865
 N          2.4732914872       -0.3598335425        0.5448026353
 C          1.3633423183       -0.1727248951        1.4548006960
 C          1.1114764834       -1.4277106485        2.2959248843
 C          0.0819834859       -2.2605052653        1.5140158898
 C         -0.3935312006       -1.3840334304        0.3297775218
 C          0.0429709448        0.0283177922        0.7043598385
 N         -1.8156059998       -1.5591827415        0.0925567890
 C         -2.3409532572       -2.8200114870        0.0365341316
 N         -3.6166197038       -2.8695711835       -0.1788620002
 C         -3.9997587325       -1.5566181817       -0.2889796684
 C         -2.8709133926       -0.7049889660       -0.1322423954
 C         -3.0955404639        0.6773288719       -0.2589231337
 C         -2.3818656657        1.9076509139       -0.2384429751
 C         -3.2859137858        2.9065502042       -0.4508291167
 N         -4.5321537634        2.3833954530       -0.6054356246
 C         -4.4564876385        1.0317952023       -0.5019005753
 N         -5.5174072507        0.2300328558       -0.6290046787
 C         -5.2828443942       -1.0586215974       -0.5262356758
 H          2.5204556561       -1.2008009287       -0.0090512309
 H          1.6230504557        0.7007477339        2.0576858266
 H          2.0361603627       -1.9733709925        2.4689322730
 H          0.7084649509       -1.1332841991        3.2626636225
 H         -0.7672757644       -2.5081920639        2.1499462451
 H          0.5151668723       -3.1929456404        1.1579937488
 H          0.1226389896       -1.6897172046       -0.5891411760
 H         -0.6852985039        0.4724257759        1.3806039803
 H          0.1791590667        0.6630919125       -0.1671053215
 H         -1.7306128873       -3.6925307369        0.1558554357
 H         -1.3351744769        2.0656785673       -0.0958633330
 H         -3.1176677435        3.9637480835       -0.5021262677
 H         -6.1254201350       -1.7241896227       -0.6361210501
 H         -5.3816489230        2.8933355127       -0.7796441577
 H          7.3101012953        1.6106375236        0.0220560154
 H          6.6641457717        0.1411025831        0.7687362268
 H          5.8852772273        1.7010725459        1.0656191846
 H          7.1143120223        0.5010465484       -2.2790062897
 H          5.5558431008       -0.1743499456       -2.7773671723
 H          6.4799722108       -0.9506954267       -1.4894892300
 H          4.4288207645        2.0382299049       -2.3657094006
 H          4.5609313100        2.8192155439       -0.7839374450
 H          5.9664728725        2.7513076461       -1.8548302776
  48
        -73.16320658
 C          5.1332465437        2.6484778490       -0.5213150330
 C          5.5263252981        1.1724410756       -0.5618241003
 C          6.1868522379        0.8272959303       -1.8966747187
 C          6.4468721707        0.8129607067        0.6034624695
 O          4.3348820272        0.3340306585       -0.5385626361
 C          3.4791055594        0.3527575076        0.4932045175
 O          3.5780202974        1.0406253278        1.4959389890
 N          2.4745304007       -0.5113873886        0.2659240912
 C          1.3875726117       -0.7286543807        1.1966139331
 C          1.1498065406       -2.2220415659        1.4434507544
 C          0.0958951874       -2.6580616275        0.4120462179
 C         -0.3982347194       -1.3704512899       -0.2911398894
 C          0.0507576128       -0.2408312159        0.6295292817
 N         -1.8248761302       -1.4392995796       -0.5537459970
 C         -2.3499982202       -2.5609284612       -1.1327462223
 N         -3.6318412834       -2.5323081615       -1.3114019729
 C         -4.0204117216       -1.3067167957       -0.8326433896
 C         -2.8882052201       -0.5882022059       -0.3572238752
 C         -3.1188779476        0.7110411559        0.1286664941
 C         -2.4064358749        1.8260704756        0.6508272505
 C         -3.3190625541        2.8041368597        0.9170053065
 N         -4.5694473134        2.3762224995        0.5945068532
 C         -4.4882331931        1.1123927080        0.1054367394
 N         -5.5519585953        0.4258830773       -0.3206922074
 C         -5.3118747984       -0.7767355434       -0.7920274818
 H          2.4940529090       -1.0291836626       -0.5988205286
 H          1.6662577539       -0.1859128959        2.1030347786
 H          2.0755438135       -2.7848959391        1.3488558239
 H          0.7739406752       -2.3604658034        2.4550008558
 H         -0.7417373035       -3.1473793442        0.9081966797
 H          0.5123794967       -3.3593828762       -0.3079604576
 H          0.0996025656       -1.2638038133       -1.2632085245
 H         -0.6594893910       -0.1270095892        1.4464752996
 H          0.1668964601        0.7016589215        0.1010670308
 H         -1.7356454389       -3.3910679562       -1.4183976518
 H         -1.3550752985        1.9256841589        0.8109014869
 H         -3.1551633533        3.7845244501        1.3177472467
 H         -6.1565477908       -1.3441463677       -1.1522203437
 H         -5.4261064073        2.8955269612        0.6859928372
 H          6.4315103399       -0.2305394559       -1.9268980077
 H          7.0949989909        1.4081815219       -2.0163913111
 H          5.5081778328        1.0507050661       -2.7148128731
 H          6.0225144040        3.2636918712       -0.6131268815
 H          4.6387411049        2.8801398363        0.4189691813
 H          4.4554650470        2.8775101436       -1.3405058386
 H          7.3636262724        1.3894201699        0.5331768244
 H          5.9603568149        1.0364960940        1.5498252606
 H          6.6892568927       -0.2468570547        0.5752285789
