  48
        -73.17274837
 C          6.5268396289       -0.4301517620        1.4051561746
 C          6.2872507098        0.3151032154        0.0929678311
 C          7.0452921724        1.6426304129        0.0809682674
 C          6.6811944420       -0.5406415243       -1.1100135469
 O          4.8895829373        0.7137209197       -0.0102482611
 C          3.8986176333       -0.1883001534       -0.0306548869
 O          4.0291491299       -1.4001601668        0.0292016904
 N          2.7139263810        0.4403556030       -0.1236619446
 C          1.4475509028       -0.2548036808       -0.1929825490
 C          0.6526468059        0.1326437744       -1.4552692363
 C         -0.4108814085        1.1153791442       -0.9708514592
 C         -0.7969860338        0.5673799318        0.4088783489
 C          0.5398155991        0.1150560795        1.0016184149
 N         -1.7445533790       -0.5182162586        0.2787431500
 C         -1.5141614145       -1.8569995944        0.1758177514
 N         -2.5865582317       -2.5749879961        0.0201404477
 C         -3.6231511396       -1.6702591391        0.0029452599
 C         -3.0972477515       -0.3664246942        0.1562183873
 C         -3.9758411510        0.7182120527        0.1518614859
 C         -3.9366575688        2.1331945704        0.2432515434
 C         -5.2282489096        2.5663881026        0.1571712690
 N         -6.0729345536        1.5050256856        0.0171529877
 C         -5.3434284524        0.3586525682        0.0051602103
 N         -5.8550989037       -0.8696917917       -0.1296501782
 C         -5.0008620900       -1.8715712800       -0.1333137941
 H          2.7232107616        1.4477099829       -0.1777359650
 H          1.7090018590       -1.3163403177       -0.1948640855
 H          1.3023854811        0.5588405632       -2.2160235034
 H          0.1769876697       -0.7540538045       -1.8742072711
 H         -1.2670197479        1.1702734181       -1.6408962440
 H          0.0083270814        2.1134892116       -0.8552447423
 H         -1.2802784918        1.3232576489        1.0327248570
 H          0.4185449571       -0.7095127105        1.7002603299
 H          0.9863232955        0.9476144060        1.5432172504
 H         -0.5325141677       -2.2832810674        0.2251421145
 H         -3.0681526910        2.7509834310        0.3487703055
 H         -5.6070289664        3.5685394640        0.1864254075
 H         -5.4151053093       -2.8622120736       -0.2468124599
 H         -7.0741771549        1.5477092004       -0.0704122229
 H          8.1113201925        1.4554023757        0.1522599201
 H          6.7321040577        2.2558846155        0.9209235927
 H          6.8365188199        2.1801946340       -0.8394565657
 H          5.9647684694       -1.3609137622        1.4170390956
 H          6.2090421731        0.1822203413        2.2458933015
 H          7.5835154134       -0.6550506242        1.5078839024
 H          7.7402806404       -0.7720522926       -1.0601412559
 H          6.1162476671       -1.4697907043       -1.1117175569
 H          6.4764687976       -0.0040691109       -2.0336065614
  48
        -73.17230698
 C          7.1649451111        0.9296077433        1.1118482235
 C          6.2205080418       -0.1381816797        0.5597204758
 C          6.7296483575       -0.6662063825       -0.7805161159
 C          6.0399618459       -1.2713878948        1.5686434291
 O          4.9627909782        0.5746546323        0.3744042762
 C          3.8719619325       -0.0336631424       -0.1095892468
 O          3.7883360887       -1.2065265869       -0.4358574925
 N          2.8582612871        0.8471207425       -0.1924056018
 C          1.5410151001        0.4960123771       -0.6582097456
 C          1.0178574217        1.4164315703       -1.7637493641
 C         -0.4773639530        1.1127238272       -1.7891276671
 C         -0.8641676257        0.8158836653       -0.3213319838
 C          0.4642281401        0.6163783261        0.4313281041
 N         -1.7256694461       -0.3388500067       -0.2292326553
 C         -1.3707540376       -1.6419146716       -0.4173096358
 N         -2.3533924536       -2.4848966610       -0.3128084092
 C         -3.4591590525       -1.7107541267       -0.0447183840
 C         -3.0717945997       -0.3503878220        0.0037860930
 C         -4.0482637050        0.6159219911        0.2555879227
 C         -4.1620444141        2.0243302161        0.3843288812
 C         -5.4760625989        2.2904933400        0.6406074804
 N         -6.1920347604        1.1311639032        0.6790905934
 C         -5.3544729392        0.0869106112        0.4466149613
 N         -5.7317601752       -1.1955615640        0.4090087500
 C         -4.7910729452       -2.0831599727        0.1643255968
 H          3.0316527760        1.7907892380        0.1201000629
 H          1.6154173110       -0.5342465402       -1.0199424264
 H          1.1911843341        2.4540449004       -1.4786949260
 H          1.4957751148        1.2298443833       -2.7220988285
 H         -0.6660310337        0.2227456669       -2.3913956960
 H         -1.0607322084        1.9317259642       -2.2033600853
 H         -1.4263752450        1.6445640836        0.1108421094
 H          0.4354662594       -0.2547447404        1.0829576966
 H          0.6776259679        1.4923425136        1.0429072475
 H         -0.3616391462       -1.9375824597       -0.6274882516
 H         -3.3808856770        2.7518638890        0.2947737609
 H         -5.9538326975        3.2366835343        0.7989635298
 H         -5.0953317960       -3.1185860375        0.1321947737
 H         -7.1800524953        1.0456069765        0.8481716965
 H          7.7038560109       -1.1243042073       -0.6437763686
 H          6.8159461193        0.1493412363       -1.4947395458
 H          6.0425035514       -1.4093623000       -1.1778148223
 H          7.2632128407        1.7425131529        0.3983050592
 H          8.1413330770        0.4941805041        1.2951629377
 H          6.7699563055        1.3283959634        2.0417052199
 H          6.9963387458       -1.7503845114        1.7518731487
 H          5.6522887993       -0.8793993716        2.5060969322
 H          5.3427803884       -2.0112920585        1.1827180039
  48
        -73.17226045
 C          6.1461683540       -1.0085366829        1.6420808633
 C          6.2612439210        0.0002116342        0.5003416621
 C          7.1759891992        1.1595933581        0.8953910077
 C          6.7603287852       -0.6673256308       -0.7802654482
 O          4.9740577517        0.6410978737        0.2630779979
 C          3.8954124256       -0.0593218633       -0.1116455366
 O          3.8467928258       -1.2661223688       -0.2857029928
 N          2.8490084805        0.7703073900       -0.2744028193
 C          1.5410154170        0.3284290007       -0.6856395162
 C          1.0193223057        1.0455142176       -1.9340484829
 C         -0.4720629473        0.7259915575       -1.9181020014
 C         -0.8686933459        0.6977081987       -0.4240681626
 C          0.4538584591        0.6153794302        0.3615764227
 N         -1.7509226229       -0.4076518659       -0.1354398995
 C         -1.4199264110       -1.7295449112       -0.0877797514
 N         -2.4181963162       -2.5228117863        0.1602013168
 C         -3.5099735743       -1.6935413812        0.2815478154
 C         -3.0974390095       -0.3536100027        0.0889365221
 C         -4.0560882246        0.6596177481        0.1574706603
 C         -4.1432887947        2.0697676295        0.0274396091
 C         -5.4524171957        2.4019784818        0.2243117726
 N         -6.1901253655        1.2822768694        0.4696256950
 C         -5.3723725139        0.1977213634        0.4341780429
 N         -5.7735011439       -1.0638554829        0.6248886212
 C         -4.8492715887       -1.9978410559        0.5469142648
 H          3.0016616136        1.7533389186       -0.1051477852
 H          1.6312671777       -0.7463797518       -0.8712134622
 H          1.1804142439        2.1180689783       -1.8256791931
 H          1.5082276640        0.7057840431       -2.8436739168
 H         -0.6452163340       -0.2612212871       -2.3491388726
 H         -1.0593973280        1.4491175547       -2.4793322274
 H         -1.4178944549        1.5991571473       -0.1495762487
 H          0.4176811087       -0.1453797292        1.1387729323
 H          0.6629941263        1.5742745614        0.8342942049
 H         -0.4161706410       -2.0756047252       -0.2386130595
 H         -3.3484317398        2.7544650709       -0.1890210536
 H         -5.9126776789        3.3696566785        0.2058578915
 H         -5.1738652499       -3.0166526357        0.6965725540
 H         -7.1795695357        1.2488500412        0.6478780144
 H          8.1759648362        0.7867209962        1.0891125186
 H          6.7947454228        1.6444873554        1.7893577497
 H          7.2147597244        1.8905393319        0.0929226232
 H          5.7570889712       -0.5215213705        2.5332883213
 H          7.1251959903       -1.4222494192        1.8612358517
 H          5.4750471881       -1.8174798902        1.3635167235
 H          6.0895390442       -1.4724387782       -1.0704677000
 H          6.8055285702        0.0601157221       -1.5874314660
 H          7.7514447797       -1.0769917748       -0.6142571686
  48
        -73.17200680
 C          5.5489555549        0.8623955352       -2.2184382019
 C          5.7978651963        0.6547756060       -0.7252894700
 C          6.9282540672       -0.3499205491       -0.5019076012
 C          6.1075729448        1.9777716344       -0.0264469790
 O          4.6422824871        0.0181879475       -0.1065638792
 C          3.4368812633        0.6038553478       -0.0939176474
 O          3.1608614584        1.6895270241       -0.5768254342
 N          2.5540671135       -0.1891052552        0.5393033288
 C          1.1667875012        0.1584125296        0.7364733035
 C          0.7928714829        0.2054628988        2.2294166438
 C         -0.6571418509       -0.2605446995        2.2856797851
 C         -0.7059428576       -1.3673917855        1.2255041527
 C          0.2089806933       -0.8686686065        0.0937714196
 N         -2.0406914886       -1.6839322070        0.7863119314
 C         -2.6355547465       -2.9016174099        0.9355029292
 N         -3.8523798483       -2.9675476034        0.4912246382
 C         -4.1163689167       -1.7093301153        0.0035689550
 C         -2.9773690233       -0.8848555986        0.1833728132
 C         -3.0496198359        0.4417629844       -0.2561146580
 C         -2.2372903882        1.6052265543       -0.3125355124
 C         -2.9867556520        2.5831237386       -0.8990130490
 N         -4.2229283549        2.1034058616       -1.2130390408
 C         -4.2984585113        0.7998146697       -0.8378255694
 N         -5.3775753307        0.0289886799       -1.0067458755
 C         -5.2823790837       -1.2149926066       -0.5890835698
 H          2.8957934462       -1.0642648332        0.9074816217
 H          1.0522999460        1.1418445205        0.2721997375
 H          1.4274321862       -0.4923434694        2.7764996438
 H          0.9301926653        1.1977110846        2.6519423642
 H         -1.3351559361        0.5452772600        2.0088198741
 H         -0.9401362875       -0.6261031941        3.2708440595
 H         -0.2999962751       -2.2902993608        1.6506982069
 H         -0.3865583919       -0.4036165660       -0.6894756433
 H          0.7674240365       -1.6875315371       -0.3558997710
 H         -2.1242754273       -3.7298131239        1.3862392950
 H         -1.2284262553        1.7150495075        0.0285809699
 H         -2.7176751440        3.5979235632       -1.1145265281
 H         -6.1497415562       -1.8434116786       -0.7238128646
 H         -4.9672979326        2.6159242888       -1.6551053550
 H          7.0705382989       -0.5170984270        0.5618640728
 H          7.8481606408        0.0331664657       -0.9302993203
 H          6.6808326025       -1.2969861011       -0.9727183014
 H          5.2999838277       -0.0849584223       -2.6910942832
 H          6.4421745663        1.2677230213       -2.6827523395
 H          4.7257244336        1.5565009790       -2.3693649148
 H          6.2477892129        1.8132279603        1.0394146790
 H          7.0140883700        2.4049556546       -0.4429084902
 H          5.2886285450        2.6786933558       -0.1686797749
  48
        -73.17200512
 C          6.0774503814        1.9351972679        0.3833504413
 C          5.7516874936        0.8287748544       -0.6187779182
 C          5.4457184353        1.4055190084       -2.0002704424
 C          6.8972191777       -0.1804401850       -0.6977656780
 O          4.6245372202        0.0360617273       -0.1446536557
 C          3.4162875023        0.5787440440        0.0583289526
 O          3.1150844467        1.7474807976       -0.1188141108
 N          2.5634966263       -0.3639121035        0.4984334202
 C          1.1751054302       -0.1044027999        0.7962287589
 C          0.8084102658       -0.5061429065        2.2356520208
 C         -0.6485764706       -0.9464305277        2.1573438040
 C         -0.7123413564       -1.6911769884        0.8182738160
 C          0.2174846596       -0.9001976235       -0.1184741870
 N         -2.0504051752       -1.8399459428        0.3060747708
 C         -2.6674829440       -3.0367436969        0.0920665704
 N         -3.8814597054       -2.9473429701       -0.3559086244
 C         -4.1193901404       -1.5968421652       -0.4570102581
 C         -2.9679876782       -0.8822831854       -0.0409338903
 C         -3.0136455090        0.5159094351       -0.0752265745
 C         -2.1816527122        1.6295327541        0.2145628521
 C         -2.9082178216        2.7500360030       -0.0654683302
 N         -4.1483067554        2.4062944107       -0.5137748091
 C         -4.2499275681        1.0516192285       -0.5343462492
 N         -5.3403568580        0.3840515729       -0.9248828170
 C         -5.2708369795       -0.9291895327       -0.8855708793
 H          2.9206572845       -1.3018245024        0.6041560306
 H          1.0503000485        0.9715588086        0.6458120074
 H          1.4330507747       -1.3461399381        2.5406485509
 H          0.9616033743        0.3094716504        2.9378649870
 H         -1.3136314855       -0.0844995846        2.1319460657
 H         -0.9387172601       -1.5816287715        2.9919651630
 H         -0.3257158019       -2.7058628988        0.9532738898
 H         -0.3659280546       -0.2279057749       -0.7447391158
 H          0.7764652280       -1.5641957650       -0.7752994943
 H         -2.1744550987       -3.9698458746        0.2835954656
 H         -1.1749824231        1.6156943029        0.5784561030
 H         -2.6197731749        3.7782362786        0.0256189805
 H         -6.1473293803       -1.4743238344       -1.2017593802
 H         -4.8794121084        3.0395072006       -0.7906875497
 H          6.3177424735        1.9310401855       -2.3758547870
 H          4.6120368149        2.1010341503       -1.9411047079
 H          5.1869386731        0.6057621626       -2.6904017035
 H          6.2610042971        1.5072016121        1.3661358342
 H          5.2477256071        2.6342412427        0.4543184970
 H          6.9632333876        2.4707914809        0.0574261211
 H          6.6389855319       -0.9813051883       -1.3845847122
 H          7.7970270340        0.3143785582       -1.0471077396
 H          7.0816458569       -0.6092964995        0.2829473364
  48
        -73.17191425
 C          4.3166054702        2.2137642060       -1.2795677355
 C          4.1582311950        2.0579937575        0.2324267084
 C          5.4711342887        2.3796556719        0.9467283592
 C          3.0287851562        2.9394582474        0.7645802796
 O          3.9139203653        0.6631461633        0.5727284622
 C          2.8309867124        0.0053165833        0.1279632428
 O          1.9643625091        0.4743101727       -0.5899748072
 N          2.8516161199       -1.2535881417        0.6039754588
 C          1.8478091535       -2.2696014669        0.3427986069
 C          1.7834777289       -2.6725650747       -1.1487538230
 C          0.2967490050       -2.8476206904       -1.4477094350
 C         -0.3167750511       -1.7071960585       -0.6389713182
 C          0.4200402445       -1.8095759590        0.7052438059
 N         -1.7484734875       -1.7400532360       -0.4917654688
 C         -2.6043758758       -2.7978167081       -0.5570525106
 N         -3.8462564283       -2.4992096492       -0.3146873166
 C         -3.8441264841       -1.1477987361       -0.0534039086
 C         -2.5203198372       -0.6621643815       -0.1597733115
 C         -2.2777729511        0.6922224451        0.0712544004
 C         -1.1861581773        1.5977682006        0.0889056729
 C         -1.7007704841        2.8199483441        0.4113265310
 N         -3.0501584275        2.7311066409        0.5980119251
 C         -3.4388867368        1.4444271890        0.3976582635
 N         -4.6963734717        0.9999347984        0.4998420388
 C         -4.8934291688       -0.2827029446        0.2753410193
 H          3.6472430791       -1.4913112702        1.1749090252
 H          2.1288211067       -3.1255316547        0.9565518106
 H          2.1818551121       -1.8548562113       -1.7492913152
 H          2.3601687134       -3.5706437748       -1.3551300790
 H         -0.0474649274       -3.8095099767       -1.0685735215
 H          0.0700239608       -2.7794698089       -2.5093859313
 H         -0.0575941351       -0.7543959856       -1.1115088351
 H         -0.0729319123       -2.5530858435        1.3319121712
 H          0.4264916401       -0.8592965198        1.2351519981
 H         -2.2826484948       -3.7895568816       -0.8024382873
 H         -0.1590543213        1.3713027251       -0.1194229676
 H         -1.1931517138        3.7575278175        0.5226067647
 H         -5.9097140003       -0.6375611901        0.3586628221
 H         -3.6683342683        3.4867587441        0.8406148898
 H          6.2572871669        1.7196137387        0.5915464100
 H          5.3551368824        2.2369555394        2.0172499214
 H          5.7522174524        3.4088443263        0.7510234100
 H          5.1020967526        1.5549303312       -1.6426895647
 H          4.5779674778        3.2408472822       -1.5130674933
 H          3.3867515288        1.9632824680       -1.7844601586
 H          2.0961028898        2.7112683833        0.2547035968
 H          2.8948851943        2.7722532290        1.8308941864
 H          3.2741770072        3.9830638378        0.5962278020
  48
        -73.17184247
 C          3.0820410949        2.6683976216        1.3218160271
 C          4.1858308047        1.9227223991        0.5730033225
 C          4.3093862718        2.4176370743       -0.8674243826
 C          5.5199484929        2.0628779801        1.3060190483
 O          3.9302623981        0.4889717688        0.5932847188
 C          2.8303256778       -0.0415111002        0.0350387324
 O          1.9534066987        0.5859894946       -0.5338981733
 N          2.8472272728       -1.3766273011        0.2058673861
 C          1.8241361154       -2.2977867060       -0.2555718189
 C          1.7138093314       -2.3402492764       -1.7973674219
 C          0.2172356656       -2.4317585797       -2.0846118296
 C         -0.3587782162       -1.5078154102       -1.0144348243
 C          0.4125844604       -1.9273765562        0.2462824028
 N         -1.7859505572       -1.5642794282       -0.8349450391
 C         -2.6583578826       -2.5713716979       -1.1180658844
 N         -3.8868561925       -2.3319536794       -0.7661261628
 C         -3.8568382566       -1.0811740204       -0.1925315593
 C         -2.5308790085       -0.5914705191       -0.2296031739
 C         -2.2618622936        0.6691261785        0.3042132891
 C         -1.1581940217        1.5401050470        0.4917376606
 C         -1.6444304449        2.6553053388        1.1100066472
 N         -2.9875489610        2.5320966915        1.3208786727
 C         -3.4004482532        1.3296111484        0.8407519427
 N         -4.6596265355        0.8799768793        0.8821103531
 C         -4.8819368805       -0.3127377385        0.3698129616
 H          3.6493377430       -1.7444096879        0.6922582239
 H          2.1113919256       -3.2751681455        0.1322484448
 H          2.1060238958       -1.4071839679       -2.2017406912
 H          2.2732879382       -3.1685445273       -2.2247220956
 H         -0.1289568139       -3.4534026277       -1.9301022740
 H         -0.0377045917       -2.1161803094       -3.0938236571
 H         -0.0995510704       -0.4727967349       -1.2589459818
 H         -0.0728204381       -2.7943353473        0.6951317622
 H          0.4452591223       -1.1282772406        0.9839716435
 H         -2.3595038254       -3.4782433795       -1.6033974576
 H         -0.1422525581        1.3635659703        0.1980501169
 H         -1.1203911137        3.5384490840        1.4174366667
 H         -5.8994146746       -0.6721927443        0.4048856902
 H         -3.5856321745        3.2113404569        1.7600942255
 H          5.0717582381        1.8478929490       -1.3938351633
 H          4.5860839367        3.4669796944       -0.8680210459
 H          3.3622757335        2.3026136272       -1.3888885188
 H          3.3349711224        3.7218337334        1.3839606303
 H          2.9753553295        2.2674433137        2.3269619198
 H          2.1332742388        2.5652199514        0.8013760773
 H          5.4295073309        1.6767969904        2.3172308582
 H          6.2891394681        1.4989507908        0.7864045382
 H          5.8079369615        3.1078184652        1.3460684441
  48
        -73.17181662
 C          6.7159015591        0.2982731513       -0.3143218237
 C          5.7204573319        1.3297432042        0.2147580719
 C          5.7944511502        1.4397047900        1.7370430572
 C          5.9600354309        2.6923565534       -0.4356964345
 O          4.3675955141        0.9813920902       -0.1989549268
 C          3.7883187014       -0.1671508183        0.1794201005
 O          4.2922696202       -1.0265950767        0.8840546293
 N          2.5492231126       -0.2429093779       -0.3353662481
 C          1.6640481484       -1.3655859023       -0.1136231294
 C          1.1913214799       -1.9767667462       -1.4356444025
 C          0.0279876547       -1.0839808464       -1.8708591479
 C         -0.6174648032       -0.5626642316       -0.5690691015
 C          0.3610208497       -0.9291330857        0.5676494057
 N         -1.9242396154       -1.1340313611       -0.3430721005
 C         -2.2451782626       -2.4590962978       -0.3537633521
 N         -3.4954796490       -2.7100014015       -0.1079553567
 C         -4.0728106619       -1.4765402624        0.0893445660
 C         -3.0840717170       -0.4733947918       -0.0530006731
 C         -3.4568036945        0.8624148392        0.1135740072
 C         -2.8728403605        2.1553034349        0.0845827502
 C         -3.8739443853        3.0449158242        0.3480916133
 N         -5.0508927544        2.3849689832        0.5402707205
 C         -4.8356261285        1.0498838234        0.4072763595
 N         -5.7794272117        0.1116139328        0.5395124012
 C         -5.3977378691       -1.1384532465        0.3833651703
 H          2.2336987989        0.5252537011       -0.9069478038
 H          2.2325737930       -2.0700276942        0.4982971566
 H          1.9893339591       -2.0102744223       -2.1736210407
 H          0.8509195495       -2.9949553324       -1.2521063824
 H         -0.6965030443       -1.6237285694       -2.4783245598
 H          0.3958668175       -0.2451167962       -2.4591384937
 H         -0.7703917784        0.5154727738       -0.6211703095
 H         -0.0427427289       -1.7641611786        1.1396378228
 H          0.5264737219       -0.0994841164        1.2513521898
 H         -1.5198226135       -3.2228689754       -0.5521754922
 H         -1.8474914552        2.4045270225       -0.1007029545
 H         -3.8261141277        4.1136647229        0.4124769514
 H         -6.1588612528       -1.8964362137        0.4923455017
 H         -5.9412687650        2.8036445446        0.7499409816
 H          5.0590388028        2.1558080583        2.0963880494
 H          6.7856341608        1.7708161739        2.0296235797
 H          5.5955601442        0.4732771466        2.1940229697
 H          7.7259011795        0.6063113940       -0.0637970095
 H          6.6268514986        0.2128883149       -1.3948959545
 H          6.5223616675       -0.6743428426        0.1316732907
 H          5.8711978628        2.6088352678       -1.5149849521
 H          5.2238200132        3.4073791211       -0.0801461555
 H          6.9538076463        3.0472914595       -0.1847866875
  48
        -73.17179746
 C          5.8737895119        1.0635347201        1.9087548609
 C          5.7471755222        1.2527333082        0.3977955497
 C          5.9849304688        2.7140327875        0.0162275686
 C          6.7089257955        0.3360537114       -0.3569485155
 O          4.3764479737        1.0023111265       -0.0277211008
 C          3.7944913332       -0.1945995880        0.1365553090
 O          4.3081165419       -1.1782643801        0.6442179749
 N          2.5394958264       -0.1594076445       -0.3428932921
 C          1.6546421475       -1.3040482169       -0.3379564141
 C          1.1887175840       -1.6600168081       -1.7528107587
 C          0.0266215623       -0.7021421749       -2.0204367117
 C         -0.6267104427       -0.4333734536       -0.6480395194
 C          0.3482458110       -1.0015419065        0.4060405009
 N         -1.9321882883       -1.0409153795       -0.5387570086
 C         -2.2497594369       -2.3394553726       -0.8064820604
 N         -3.4991512975       -2.6366847667       -0.6133481378
 C         -4.0792176271       -1.4669643552       -0.1789117195
 C         -3.0933084067       -0.4524943605       -0.1246312185
 C         -3.4695278305        0.8246408575        0.2977883117
 C         -2.8895449491        2.1007697668        0.5177836034
 C         -3.8926843793        2.9194640439        0.9494864760
 N         -5.0670593356        2.2307111403        1.0132381324
 C         -4.8482292486        0.9472152205        0.6243956025
 N         -5.7889718441       -0.0019753151        0.5743318945
 C         -5.4043494490       -1.1966450765        0.1774628506
 H          2.2219319569        0.7045440719       -0.7540909278
 H          2.2214957257       -2.1098406739        0.1343888363
 H          1.9903777395       -1.5559992336       -2.4802565871
 H          0.8487217833       -2.6946767563       -1.7628979968
 H         -0.6934867419       -1.1191709193       -2.7223881518
 H          0.3966670115        0.2320254110       -2.4394052075
 H         -0.7837093889        0.6352392164       -0.4999968676
 H         -0.0565926344       -1.9279391555        0.8127760474
 H          0.5094639221       -0.3115652388        1.2312666278
 H         -1.5228230230       -3.0484269965       -1.1495844806
 H         -1.8654513813        2.3845479974        0.3819788541
 H         -3.8480443341        3.9559964315        1.2181921430
 H         -6.1627823370       -1.9641249929        0.1393561358
 H         -5.9583788608        2.5982001244        1.3005063042
 H          6.9930337126        3.0043604910        0.2921160319
 H          5.2742497293        3.3526587880        0.5326435646
 H          5.8551750058        2.8432764888       -1.0543486442
 H          5.1608554158        1.7010408976        2.4265902277
 H          6.8787662013        1.3244626884        2.2244832997
 H          5.6770782355        0.0279963976        2.1759302290
 H          7.7311234197        0.5805431280       -0.0867162725
 H          6.5154239625       -0.7033310577       -0.1027072343
 H          6.5835094508        0.4643567251       -1.4296042389
  48
        -73.17132606
 C          5.4938140056        1.9635148568       -0.1330663843
 C          4.2978239791        1.5485511075       -0.9882255555
 C          3.4588544198        2.7686859325       -1.3691678000
 C          4.7449063665        0.7916282748       -2.2377160606
 O          3.3799203851        0.7297632453       -0.2074532930
 C          3.7562458670       -0.4352988827        0.3248994535
 O          4.8584810347       -0.9528694143        0.2099640303
 N          2.7752106693       -1.0097593630        1.0456297069
 C          1.4183689093       -0.5296136088        1.1770668730
 C          0.8931338080       -0.7013779010        2.6106878725
 C         -0.6080099506       -0.9089997866        2.4452839223
 C         -0.6948842214       -1.8030003205        1.2019153828
 C          0.4259736921       -1.3003080912        0.2746122333
 N         -1.9949654271       -1.8052475610        0.5812788894
 C         -2.7893060896       -2.9064033003        0.4575139084
 N         -3.9270324943       -2.6904334086       -0.1268605799
 C         -3.9180535897       -1.3483983345       -0.4265798552
 C         -2.7007133638       -0.7738188222        0.0174607402
 C         -2.5016838780        0.5942263594       -0.1991451138
 C         -1.5196176145        1.5920744846        0.0371233390
 C         -2.0139954969        2.7612365101       -0.4634541778
 N         -3.2495777473        2.5567538121       -1.0004825090
 C         -3.5812980770        1.2471677584       -0.8580192272
 N         -4.7308529207        0.7114305101       -1.2807708684
 C         -4.8940703809       -0.5758177011       -1.0638581391
 H          2.9907619695       -1.9228813985        1.4191356502
 H          1.4434313689        0.5251438727        0.9000025582
 H          1.3424888247       -1.5904629811        3.0540572529
 H          1.1306920131        0.1531802430        3.2389834651
 H         -1.1126516735        0.0371980889        2.2553797040
 H         -1.0645106113       -1.3754507801        3.3159295010
 H         -0.4973772939       -2.8394890978        1.4919675122
 H          0.0143607066       -0.6489434608       -0.4939687970
 H          0.9265427023       -2.1284551245       -0.2247734808
 H         -2.4828539353       -3.8686540842        0.8191656327
 H         -0.5692013797        1.4700120929        0.5134903075
 H         -1.5635847187        3.7336331511       -0.4731001940
 H         -5.8204914271       -1.0145411200       -1.4025978724
 H         -3.8350009656        3.2506670776       -1.4338217115
 H          4.0547837200        3.4483574585       -1.9686672040
 H          3.1230670564        3.2830154247       -0.4733671000
 H          2.5887321363        2.4570721697       -1.9398885440
 H          6.0724713847        1.0888263058        0.1540710827
 H          5.1524547747        2.4690424160        0.7673794025
 H          6.1291580430        2.6364124018       -0.6998737548
 H          3.8780849020        0.4802521984       -2.8161674047
 H          5.3683789825        1.4357995396       -2.8493178896
 H          5.3156334448       -0.0907314095       -1.9582167076
  48
        -73.16981778
 C          4.6152776000        2.2117656775       -0.3731999264
 C          3.4816965464        1.6979473783        0.5129118609
 C          3.8846546781        1.7052680745        1.9865290140
 C          2.2138159936        2.5260849693        0.3014237780
 O          3.0915109613        0.3579371592        0.0990332002
 C          3.9411283611       -0.6699883038        0.1497650910
 O          5.0975472718       -0.6187126226        0.5465198274
 N          3.3993038618       -1.8251867610       -0.2823017290
 C          2.0721083100       -2.0402475760       -0.8265970698
 C          1.7932602079       -1.2442570694       -2.1122601475
 C          0.2736012104       -1.1688025708       -2.1608835858
 C         -0.1121423799       -0.8952946787       -0.6994232074
 C          0.9327338575       -1.6549763783        0.1422853281
 N         -1.4662000751       -1.2874391816       -0.3998413764
 C         -1.9754567429       -2.5514848704       -0.4490375823
 N         -3.2338755661       -2.6357971739       -0.1391930443
 C         -3.6182667319       -1.3440579397        0.1380113208
 C         -2.5064131441       -0.4834398414       -0.0277995294
 C         -2.6794326420        0.8839781429        0.1987991387
 C         -1.9259145483        2.0854982636        0.1606347204
 C         -2.7747979341        3.0935381237        0.5157005578
 N         -4.0166073429        2.5936890648        0.7734778919
 C         -3.9979493277        1.2476406644        0.5889014425
 N         -5.0541130740        0.4439090359        0.7532814303
 C         -4.8627067153       -0.8388343971        0.5283173679
 H          4.0346816950       -2.6074712117       -0.2566863651
 H          2.0128485591       -3.1072022812       -1.0488598582
 H          2.2144903505       -0.2453377112       -2.0140555851
 H          2.2203626718       -1.7229573297       -2.9902768974
 H         -0.1438448376       -2.1250287557       -2.4784832519
 H         -0.0899088800       -0.3928751557       -2.8312117275
 H         -0.0403503403        0.1740954370       -0.4981928736
 H          0.4922256323       -2.5410970621        0.5962918026
 H          1.3145441385       -1.0241907373        0.9412803328
 H         -1.3808028783       -3.4011005635       -0.7211118070
 H         -0.8932238513        2.1994838420       -0.0997279285
 H         -2.5758743455        4.1429999568        0.6025922193
 H         -5.7155415103       -1.4878755123        0.6594623310
 H         -4.8253759546        3.1220576486        1.0540569605
 H          4.0965055546        2.7225717124        2.2995773737
 H          4.7731178107        1.0968927295        2.1369627335
 H          3.0789232655        1.3061001853        2.5988026252
 H          4.8579530550        3.2330874541       -0.0981208545
 H          4.3168237317        2.1862690455       -1.4188096263
 H          5.5000470654        1.5925868805       -0.2456972614
 H          1.4152370037        2.1488694900        0.9349563067
 H          2.4072467586        3.5624538823        0.5565787453
 H          1.9012207653        2.4683661678       -0.7377924963
