  48

 C          6.5430243241       -0.4198838182        1.3929332059
 C          6.2878291846        0.3223876388        0.0820402452
 C          7.0391335265        1.6536591615        0.0613141626
 C          6.6752257308       -0.5335192000       -1.1229825996
 O          4.8874767241        0.7143094857       -0.0097661552
 C          3.9000481140       -0.1918372814       -0.0208458035
 O          4.0357397384       -1.4029542424        0.0418484711
 N          2.7124254406        0.4319480435       -0.1087436637
 C          1.4485077461       -0.2677975884       -0.1765288179
 C          0.6564894826        0.1094623951       -1.4436542650
 C         -0.4046501585        1.0995601725       -0.9693584769
 C         -0.7967776349        0.5620161603        0.4128139993
 C          0.5365177398        0.1085279951        1.0127900940
 N         -1.7477699854       -0.5210569610        0.2862073629
 C         -1.5207470445       -1.8604829139        0.1828631612
 N         -2.5945912252       -2.5752466260        0.0224127268
 C         -3.6284003341       -1.6674958804        0.0012527360
 C         -3.0995412532       -0.3653370683        0.1578285021
 C         -3.9753905149        0.7215336778        0.1511501791
 C         -3.9325630705        2.1362160066        0.2449239849
 C         -5.2224784076        2.5732124398        0.1540268494
 N         -6.0695559735        1.5145464069        0.0076732993
 C         -5.3433344115        0.3659727133       -0.0026311213
 N         -5.8575864118       -0.8608951385       -0.1425965094
 C         -5.0058601663       -1.8649084258       -0.1425570383
 H          2.7178586460        1.4390658265       -0.1677745132
 H          1.7131258083       -1.3285150923       -0.1705668824
 H          1.3084463089        0.5263983228       -2.2076944036
 H          0.1787236420       -0.7798048003       -1.8547426405
 H         -1.2586635607        1.1532664898       -1.6422222179
 H          0.0181042469        2.0967678337       -0.8590870876
 H         -1.2793844369        1.3237378361        1.0299744272
 H          0.4094055731       -0.7134846366        1.7134090765
 H          0.9831209712        0.9413796595        1.5539852475
 H         -0.5406207769       -2.2897625300        0.2364242000
 H         -3.0628901741        2.7514647662        0.3555785890
 H         -5.5984003021        3.5764355365        0.1835406267
 H         -5.4215185368       -2.8545396719       -0.2599391098
 H         -7.0702130962        1.5611425980       -0.0848223098
 H          6.7289325049        2.2673491663        0.9020586292
 H          6.8209297860        2.1879071133       -0.8588481696
 H          8.1065828020        1.4720585132        0.1252268966
 H          7.6016798282       -0.6397781097        1.4858496158
 H          5.9853647535       -1.3532001096        1.4111940730
 H          6.2304466845        0.1919952731        2.2359450297
 H          6.1170347137       -1.4666879962       -1.1164506292
 H          6.4568830755       -0.0006950232       -2.0456387649
 H          7.7363966225       -0.7572205874       -1.0838801267
