  48
        -73.17274837
 C          6.5268396289       -0.4301517620        1.4051561746
 C          6.2872507098        0.3151032154        0.0929678311
 C          7.0452921724        1.6426304129        0.0809682674
 C          6.6811944420       -0.5406415243       -1.1100135469
 O          4.8895829373        0.7137209197       -0.0102482611
 C          3.8986176333       -0.1883001534       -0.0306548869
 O          4.0291491299       -1.4001601668        0.0292016904
 N          2.7139263810        0.4403556030       -0.1236619446
 C          1.4475509028       -0.2548036808       -0.1929825490
 C          0.6526468059        0.1326437744       -1.4552692363
 C         -0.4108814085        1.1153791442       -0.9708514592
 C         -0.7969860338        0.5673799318        0.4088783489
 C          0.5398155991        0.1150560795        1.0016184149
 N         -1.7445533790       -0.5182162586        0.2787431500
 C         -1.5141614145       -1.8569995944        0.1758177514
 N         -2.5865582317       -2.5749879961        0.0201404477
 C         -3.6231511396       -1.6702591391        0.0029452599
 C         -3.0972477515       -0.3664246942        0.1562183873
 C         -3.9758411510        0.7182120527        0.1518614859
 C         -3.9366575688        2.1331945704        0.2432515434
 C         -5.2282489096        2.5663881026        0.1571712690
 N         -6.0729345536        1.5050256856        0.0171529877
 C         -5.3434284524        0.3586525682        0.0051602103
 N         -5.8550989037       -0.8696917917       -0.1296501782
 C         -5.0008620900       -1.8715712800       -0.1333137941
 H          2.7232107616        1.4477099829       -0.1777359650
 H          1.7090018590       -1.3163403177       -0.1948640855
 H          1.3023854811        0.5588405632       -2.2160235034
 H          0.1769876697       -0.7540538045       -1.8742072711
 H         -1.2670197479        1.1702734181       -1.6408962440
 H          0.0083270814        2.1134892116       -0.8552447423
 H         -1.2802784918        1.3232576489        1.0327248570
 H          0.4185449571       -0.7095127105        1.7002603299
 H          0.9863232955        0.9476144060        1.5432172504
 H         -0.5325141677       -2.2832810674        0.2251421145
 H         -3.0681526910        2.7509834310        0.3487703055
 H         -5.6070289664        3.5685394640        0.1864254075
 H         -5.4151053093       -2.8622120736       -0.2468124599
 H         -7.0741771549        1.5477092004       -0.0704122229
 H          8.1113201925        1.4554023757        0.1522599201
 H          6.7321040577        2.2558846155        0.9209235927
 H          6.8365188199        2.1801946340       -0.8394565657
 H          5.9647684694       -1.3609137622        1.4170390956
 H          6.2090421731        0.1822203413        2.2458933015
 H          7.5835154134       -0.6550506242        1.5078839024
 H          7.7402806404       -0.7720522926       -1.0601412559
 H          6.1162476671       -1.4697907043       -1.1117175569
 H          6.4764687976       -0.0040691109       -2.0336065614
