  48
        -73.17274837
 C          6.5268396289       -0.4301517620        1.4051561746
 C          6.2872507098        0.3151032154        0.0929678311
 C          7.0452921724        1.6426304129        0.0809682674
 C          6.6811944420       -0.5406415243       -1.1100135469
 O          4.8895829373        0.7137209197       -0.0102482611
 C          3.8986176333       -0.1883001534       -0.0306548869
 O          4.0291491299       -1.4001601668        0.0292016904
 N          2.7139263810        0.4403556030       -0.1236619446
 C          1.4475509028       -0.2548036808       -0.1929825490
 C          0.6526468059        0.1326437744       -1.4552692363
 C         -0.4108814085        1.1153791442       -0.9708514592
 C         -0.7969860338        0.5673799318        0.4088783489
 C          0.5398155991        0.1150560795        1.0016184149
 N         -1.7445533790       -0.5182162586        0.2787431500
 C         -1.5141614145       -1.8569995944        0.1758177514
 N         -2.5865582317       -2.5749879961        0.0201404477
 C         -3.6231511396       -1.6702591391        0.0029452599
 C         -3.0972477515       -0.3664246942        0.1562183873
 C         -3.9758411510        0.7182120527        0.1518614859
 C         -3.9366575688        2.1331945704        0.2432515434
 C         -5.2282489096        2.5663881026        0.1571712690
 N         -6.0729345536        1.5050256856        0.0171529877
 C         -5.3434284524        0.3586525682        0.0051602103
 N         -5.8550989037       -0.8696917917       -0.1296501782
 C         -5.0008620900       -1.8715712800       -0.1333137941
 H          2.7232107616        1.4477099829       -0.1777359650
 H          1.7090018590       -1.3163403177       -0.1948640855
 H          1.3023854811        0.5588405632       -2.2160235034
 H          0.1769876697       -0.7540538045       -1.8742072711
 H         -1.2670197479        1.1702734181       -1.6408962440
 H          0.0083270814        2.1134892116       -0.8552447423
 H         -1.2802784918        1.3232576489        1.0327248570
 H          0.4185449571       -0.7095127105        1.7002603299
 H          0.9863232955        0.9476144060        1.5432172504
 H         -0.5325141677       -2.2832810674        0.2251421145
 H         -3.0681526910        2.7509834310        0.3487703055
 H         -5.6070289664        3.5685394640        0.1864254075
 H         -5.4151053093       -2.8622120736       -0.2468124599
 H         -7.0741771549        1.5477092004       -0.0704122229
 H          8.1113201925        1.4554023757        0.1522599201
 H          6.7321040577        2.2558846155        0.9209235927
 H          6.8365188199        2.1801946340       -0.8394565657
 H          5.9647684694       -1.3609137622        1.4170390956
 H          6.2090421731        0.1822203413        2.2458933015
 H          7.5835154134       -0.6550506242        1.5078839024
 H          7.7402806404       -0.7720522926       -1.0601412559
 H          6.1162476671       -1.4697907043       -1.1117175569
 H          6.4764687976       -0.0040691109       -2.0336065614
  48
        -73.17265331
 C          6.7697325445       -0.6369616060       -0.8769701345
 C          6.2681171777        0.4238084944        0.1015421377
 C          6.4561993968       -0.0259569524        1.5496781028
 C          6.9705581558        1.7594187802       -0.1437507757
 O          4.8646343884        0.7203028092       -0.1527072726
 C          3.9110175951       -0.2141825670       -0.0331762452
 O          4.0836040448       -1.3814552061        0.2777665424
 N          2.7118852400        0.3246834705       -0.3133806087
 C          1.4691797627       -0.4131935887       -0.2505370360
 C          0.6559265560       -0.2541127844       -1.5476976941
 C         -0.3841918486        0.8171768057       -1.2299981641
 C         -0.7668628783        0.5203378290        0.2257925808
 C          0.5598113728        0.1217336652        0.8798919208
 N         -1.7551008528       -0.5344299683        0.2878604142
 C         -1.5726416867       -1.8823232682        0.3664330635
 N         -2.6735140790       -2.5734668913        0.3554040872
 C         -3.6801132133       -1.6411234634        0.2514103010
 C         -3.1061410017       -0.3497316879        0.1971592679
 C         -3.9484846312        0.7564301581        0.0732653254
 C         -3.8597021211        2.1677024656       -0.0380851223
 C         -5.1391344876        2.6337688300       -0.1322934177
 N         -6.0232237100        1.5964691026       -0.0870113339
 C         -5.3323361725        0.4326382481        0.0345770019
 N         -5.8888151559       -0.7820668754        0.0964766176
 C         -5.0683918544       -1.8065067934        0.2008081562
 H          2.6861442960        1.3045763161       -0.5519692795
 H          1.7635766422       -1.4521367223       -0.0808421432
 H          1.2947005439        0.0149856889       -2.3854151920
 H          0.1600777430       -1.1945967648       -1.7872759503
 H         -1.2465626357        0.7748921030       -1.8930208467
 H          0.0546950349        1.8116813765       -1.2896658885
 H         -1.2146356722        1.3864720677        0.7185046420
 H          0.4163797286       -0.6081133387        1.6735127559
 H          1.0217082420        1.0038188084        1.3208285746
 H         -0.6036945420       -2.3340063872        0.4389313870
 H         -2.9683664799        2.7612660522       -0.0568598376
 H         -5.4829582812        3.6441203867       -0.2300254297
 H         -5.5188135919       -2.7869280800        0.2433842467
 H         -7.0255613951        1.6654063861       -0.1397158225
 H          7.5127978719       -0.1705239432        1.7503323476
 H          5.9322103964       -0.9627291092        1.7238113962
 H          6.0640448719        0.7271181643        2.2293244378
 H          7.8327479622       -0.7959305343       -0.7268823077
 H          6.5987310229       -0.3120188703       -1.9006465000
 H          6.2456129191       -1.5758101161       -0.7148631377
 H          8.0365527172        1.6477509381        0.0225594416
 H          6.7993864801        2.0859688199       -1.1654564292
 H          6.5793237513        2.5137525144        0.5328289948
  48
        -73.17230698
 C          7.1649451111        0.9296077433        1.1118482235
 C          6.2205080418       -0.1381816797        0.5597204758
 C          6.7296483575       -0.6662063825       -0.7805161159
 C          6.0399618459       -1.2713878948        1.5686434291
 O          4.9627909782        0.5746546323        0.3744042762
 C          3.8719619325       -0.0336631424       -0.1095892468
 O          3.7883360887       -1.2065265869       -0.4358574925
 N          2.8582612871        0.8471207425       -0.1924056018
 C          1.5410151001        0.4960123771       -0.6582097456
 C          1.0178574217        1.4164315703       -1.7637493641
 C         -0.4773639530        1.1127238272       -1.7891276671
 C         -0.8641676257        0.8158836653       -0.3213319838
 C          0.4642281401        0.6163783261        0.4313281041
 N         -1.7256694461       -0.3388500067       -0.2292326553
 C         -1.3707540376       -1.6419146716       -0.4173096358
 N         -2.3533924536       -2.4848966610       -0.3128084092
 C         -3.4591590525       -1.7107541267       -0.0447183840
 C         -3.0717945997       -0.3503878220        0.0037860930
 C         -4.0482637050        0.6159219911        0.2555879227
 C         -4.1620444141        2.0243302161        0.3843288812
 C         -5.4760625989        2.2904933400        0.6406074804
 N         -6.1920347604        1.1311639032        0.6790905934
 C         -5.3544729392        0.0869106112        0.4466149613
 N         -5.7317601752       -1.1955615640        0.4090087500
 C         -4.7910729452       -2.0831599727        0.1643255968
 H          3.0316527760        1.7907892380        0.1201000629
 H          1.6154173110       -0.5342465402       -1.0199424264
 H          1.1911843341        2.4540449004       -1.4786949260
 H          1.4957751148        1.2298443833       -2.7220988285
 H         -0.6660310337        0.2227456669       -2.3913956960
 H         -1.0607322084        1.9317259642       -2.2033600853
 H         -1.4263752450        1.6445640836        0.1108421094
 H          0.4354662594       -0.2547447404        1.0829576966
 H          0.6776259679        1.4923425136        1.0429072475
 H         -0.3616391462       -1.9375824597       -0.6274882516
 H         -3.3808856770        2.7518638890        0.2947737609
 H         -5.9538326975        3.2366835343        0.7989635298
 H         -5.0953317960       -3.1185860375        0.1321947737
 H         -7.1800524953        1.0456069765        0.8481716965
 H          7.7038560109       -1.1243042073       -0.6437763686
 H          6.8159461193        0.1493412363       -1.4947395458
 H          6.0425035514       -1.4093623000       -1.1778148223
 H          7.2632128407        1.7425131529        0.3983050592
 H          8.1413330770        0.4941805041        1.2951629377
 H          6.7699563055        1.3283959634        2.0417052199
 H          6.9963387458       -1.7503845114        1.7518731487
 H          5.6522887993       -0.8793993716        2.5060969322
 H          5.3427803884       -2.0112920585        1.1827180039
  48
        -73.17222807
 C          6.7755499105       -0.8100639409       -0.3974391034
 C          6.1728951736        0.1338060314        0.6417816334
 C          5.9475640846       -0.5802715084        1.9737637544
 C          7.0599641063        1.3641258728        0.8328114982
 O          4.9180844069        0.6873941556        0.1497284259
 C          3.8673163216       -0.0913031738       -0.1403182641
 O          3.8217706590       -1.3060787388       -0.0350947957
 N          2.8482992149        0.6683018319       -0.5817089929
 C          1.5512422621        0.1396939776       -0.9197429060
 C          1.0292472784        0.6331785970       -2.2712738887
 C         -0.4601273503        0.3094982827       -2.2077389259
 C         -0.8648811742        0.5412350778       -0.7348808000
 C          0.4527056317        0.5748270581        0.0643818659
 N         -1.7628663006       -0.4847789860       -0.2629532949
 C         -1.4686702618       -1.8047273933       -0.0878257555
 N         -2.4634999816       -2.5230406294        0.3379091357
 C         -3.5123454051       -1.6403047098        0.4607956089
 C         -3.0778214102       -0.3480140286        0.0806570105
 C         -3.9911545891        0.7076165108        0.1298439551
 C         -4.0433248220        2.1002819832       -0.1369333148
 C         -5.3143757375        2.5077080102        0.1484044975
 N         -6.0616382442        1.4517471614        0.5778428741
 C         -5.2883072829        0.3344667021        0.5779672030
 N         -5.7103942269       -0.8816450051        0.9406670259
 C         -4.8288305199       -1.8572286019        0.8807235354
 H          2.9868739853        1.6677802197       -0.6011114533
 H          1.6606818053       -0.9491616926       -0.9223360652
 H          1.1815021701        1.7100177531       -2.3433497880
 H          1.5240492910        0.1504846919       -3.1101851054
 H         -0.6247967536       -0.7385080022       -2.4616639132
 H         -1.0479767590        0.9200707633       -2.8892949149
 H         -1.4006461644        1.4843366783       -0.6239233878
 H          0.4091919378       -0.0699796995        0.9403157503
 H          0.6584787049        1.5903670806        0.4006461486
 H         -0.4928560311       -2.2050226662       -0.2820775884
 H         -3.2511208023        2.7258491038       -0.4955423559
 H         -5.7403772303        3.4882856084        0.0738256984
 H         -5.1697849870       -2.8390107893        1.1730740877
 H         -7.0297867976        1.4784319836        0.8501474004
 H          5.2945191133       -1.4386205021        1.8348565325
 H          5.4871727957        0.0981833769        2.6883282561
 H          6.8989623934       -0.9213124179        2.3690493582
 H          7.7439118963       -1.1587021432       -0.0533496982
 H          6.8990302225       -0.2919115056       -1.3456232007
 H          6.1245221479       -1.6678120180       -0.5485248400
 H          7.1806771905        1.8842532021       -0.1130365494
 H          6.6026195697        2.0429661714        1.5467927347
 H          8.0335631050        1.0595188149        1.2012022729
  48
        -73.17200680
 C          5.5489555549        0.8623955352       -2.2184382019
 C          5.7978651963        0.6547756060       -0.7252894700
 C          6.9282540672       -0.3499205491       -0.5019076012
 C          6.1075729448        1.9777716344       -0.0264469790
 O          4.6422824871        0.0181879475       -0.1065638792
 C          3.4368812633        0.6038553478       -0.0939176474
 O          3.1608614584        1.6895270241       -0.5768254342
 N          2.5540671135       -0.1891052552        0.5393033288
 C          1.1667875012        0.1584125296        0.7364733035
 C          0.7928714829        0.2054628988        2.2294166438
 C         -0.6571418509       -0.2605446995        2.2856797851
 C         -0.7059428576       -1.3673917855        1.2255041527
 C          0.2089806933       -0.8686686065        0.0937714196
 N         -2.0406914886       -1.6839322070        0.7863119314
 C         -2.6355547465       -2.9016174099        0.9355029292
 N         -3.8523798483       -2.9675476034        0.4912246382
 C         -4.1163689167       -1.7093301153        0.0035689550
 C         -2.9773690233       -0.8848555986        0.1833728132
 C         -3.0496198359        0.4417629844       -0.2561146580
 C         -2.2372903882        1.6052265543       -0.3125355124
 C         -2.9867556520        2.5831237386       -0.8990130490
 N         -4.2229283549        2.1034058616       -1.2130390408
 C         -4.2984585113        0.7998146697       -0.8378255694
 N         -5.3775753307        0.0289886799       -1.0067458755
 C         -5.2823790837       -1.2149926066       -0.5890835698
 H          2.8957934462       -1.0642648332        0.9074816217
 H          1.0522999460        1.1418445205        0.2721997375
 H          1.4274321862       -0.4923434694        2.7764996438
 H          0.9301926653        1.1977110846        2.6519423642
 H         -1.3351559361        0.5452772600        2.0088198741
 H         -0.9401362875       -0.6261031941        3.2708440595
 H         -0.2999962751       -2.2902993608        1.6506982069
 H         -0.3865583919       -0.4036165660       -0.6894756433
 H          0.7674240365       -1.6875315371       -0.3558997710
 H         -2.1242754273       -3.7298131239        1.3862392950
 H         -1.2284262553        1.7150495075        0.0285809699
 H         -2.7176751440        3.5979235632       -1.1145265281
 H         -6.1497415562       -1.8434116786       -0.7238128646
 H         -4.9672979326        2.6159242888       -1.6551053550
 H          7.0705382989       -0.5170984270        0.5618640728
 H          7.8481606408        0.0331664657       -0.9302993203
 H          6.6808326025       -1.2969861011       -0.9727183014
 H          5.2999838277       -0.0849584223       -2.6910942832
 H          6.4421745663        1.2677230213       -2.6827523395
 H          4.7257244336        1.5565009790       -2.3693649148
 H          6.2477892129        1.8132279603        1.0394146790
 H          7.0140883700        2.4049556546       -0.4429084902
 H          5.2886285450        2.6786933558       -0.1686797749
  48
        -73.17200512
 C          6.0774503814        1.9351972679        0.3833504413
 C          5.7516874936        0.8287748544       -0.6187779182
 C          5.4457184353        1.4055190084       -2.0002704424
 C          6.8972191777       -0.1804401850       -0.6977656780
 O          4.6245372202        0.0360617273       -0.1446536557
 C          3.4162875023        0.5787440440        0.0583289526
 O          3.1150844467        1.7474807976       -0.1188141108
 N          2.5634966263       -0.3639121035        0.4984334202
 C          1.1751054302       -0.1044027999        0.7962287589
 C          0.8084102658       -0.5061429065        2.2356520208
 C         -0.6485764706       -0.9464305277        2.1573438040
 C         -0.7123413564       -1.6911769884        0.8182738160
 C          0.2174846596       -0.9001976235       -0.1184741870
 N         -2.0504051752       -1.8399459428        0.3060747708
 C         -2.6674829440       -3.0367436969        0.0920665704
 N         -3.8814597054       -2.9473429701       -0.3559086244
 C         -4.1193901404       -1.5968421652       -0.4570102581
 C         -2.9679876782       -0.8822831854       -0.0409338903
 C         -3.0136455090        0.5159094351       -0.0752265745
 C         -2.1816527122        1.6295327541        0.2145628521
 C         -2.9082178216        2.7500360030       -0.0654683302
 N         -4.1483067554        2.4062944107       -0.5137748091
 C         -4.2499275681        1.0516192285       -0.5343462492
 N         -5.3403568580        0.3840515729       -0.9248828170
 C         -5.2708369795       -0.9291895327       -0.8855708793
 H          2.9206572845       -1.3018245024        0.6041560306
 H          1.0503000485        0.9715588086        0.6458120074
 H          1.4330507747       -1.3461399381        2.5406485509
 H          0.9616033743        0.3094716504        2.9378649870
 H         -1.3136314855       -0.0844995846        2.1319460657
 H         -0.9387172601       -1.5816287715        2.9919651630
 H         -0.3257158019       -2.7058628988        0.9532738898
 H         -0.3659280546       -0.2279057749       -0.7447391158
 H          0.7764652280       -1.5641957650       -0.7752994943
 H         -2.1744550987       -3.9698458746        0.2835954656
 H         -1.1749824231        1.6156943029        0.5784561030
 H         -2.6197731749        3.7782362786        0.0256189805
 H         -6.1473293803       -1.4743238344       -1.2017593802
 H         -4.8794121084        3.0395072006       -0.7906875497
 H          6.3177424735        1.9310401855       -2.3758547870
 H          4.6120368149        2.1010341503       -1.9411047079
 H          5.1869386731        0.6057621626       -2.6904017035
 H          6.2610042971        1.5072016121        1.3661358342
 H          5.2477256071        2.6342412427        0.4543184970
 H          6.9632333876        2.4707914809        0.0574261211
 H          6.6389855319       -0.9813051883       -1.3845847122
 H          7.7970270340        0.3143785582       -1.0471077396
 H          7.0816458569       -0.6092964995        0.2829473364
  48
        -73.17191425
 C          4.3166054702        2.2137642060       -1.2795677355
 C          4.1582311950        2.0579937575        0.2324267084
 C          5.4711342887        2.3796556719        0.9467283592
 C          3.0287851562        2.9394582474        0.7645802796
 O          3.9139203653        0.6631461633        0.5727284622
 C          2.8309867124        0.0053165833        0.1279632428
 O          1.9643625091        0.4743101727       -0.5899748072
 N          2.8516161199       -1.2535881417        0.6039754588
 C          1.8478091535       -2.2696014669        0.3427986069
 C          1.7834777289       -2.6725650747       -1.1487538230
 C          0.2967490050       -2.8476206904       -1.4477094350
 C         -0.3167750511       -1.7071960585       -0.6389713182
 C          0.4200402445       -1.8095759590        0.7052438059
 N         -1.7484734875       -1.7400532360       -0.4917654688
 C         -2.6043758758       -2.7978167081       -0.5570525106
 N         -3.8462564283       -2.4992096492       -0.3146873166
 C         -3.8441264841       -1.1477987361       -0.0534039086
 C         -2.5203198372       -0.6621643815       -0.1597733115
 C         -2.2777729511        0.6922224451        0.0712544004
 C         -1.1861581773        1.5977682006        0.0889056729
 C         -1.7007704841        2.8199483441        0.4113265310
 N         -3.0501584275        2.7311066409        0.5980119251
 C         -3.4388867368        1.4444271890        0.3976582635
 N         -4.6963734717        0.9999347984        0.4998420388
 C         -4.8934291688       -0.2827029446        0.2753410193
 H          3.6472430791       -1.4913112702        1.1749090252
 H          2.1288211067       -3.1255316547        0.9565518106
 H          2.1818551121       -1.8548562113       -1.7492913152
 H          2.3601687134       -3.5706437748       -1.3551300790
 H         -0.0474649274       -3.8095099767       -1.0685735215
 H          0.0700239608       -2.7794698089       -2.5093859313
 H         -0.0575941351       -0.7543959856       -1.1115088351
 H         -0.0729319123       -2.5530858435        1.3319121712
 H          0.4264916401       -0.8592965198        1.2351519981
 H         -2.2826484948       -3.7895568816       -0.8024382873
 H         -0.1590543213        1.3713027251       -0.1194229676
 H         -1.1931517138        3.7575278175        0.5226067647
 H         -5.9097140003       -0.6375611901        0.3586628221
 H         -3.6683342683        3.4867587441        0.8406148898
 H          6.2572871669        1.7196137387        0.5915464100
 H          5.3551368824        2.2369555394        2.0172499214
 H          5.7522174524        3.4088443263        0.7510234100
 H          5.1020967526        1.5549303312       -1.6426895647
 H          4.5779674778        3.2408472822       -1.5130674933
 H          3.3867515288        1.9632824680       -1.7844601586
 H          2.0961028898        2.7112683833        0.2547035968
 H          2.8948851943        2.7722532290        1.8308941864
 H          3.2741770072        3.9830638378        0.5962278020
  48
        -73.17184247
 C          3.0820410949        2.6683976216        1.3218160271
 C          4.1858308047        1.9227223991        0.5730033225
 C          4.3093862718        2.4176370743       -0.8674243826
 C          5.5199484929        2.0628779801        1.3060190483
 O          3.9302623981        0.4889717688        0.5932847188
 C          2.8303256778       -0.0415111002        0.0350387324
 O          1.9534066987        0.5859894946       -0.5338981733
 N          2.8472272728       -1.3766273011        0.2058673861
 C          1.8241361154       -2.2977867060       -0.2555718189
 C          1.7138093314       -2.3402492764       -1.7973674219
 C          0.2172356656       -2.4317585797       -2.0846118296
 C         -0.3587782162       -1.5078154102       -1.0144348243
 C          0.4125844604       -1.9273765562        0.2462824028
 N         -1.7859505572       -1.5642794282       -0.8349450391
 C         -2.6583578826       -2.5713716979       -1.1180658844
 N         -3.8868561925       -2.3319536794       -0.7661261628
 C         -3.8568382566       -1.0811740204       -0.1925315593
 C         -2.5308790085       -0.5914705191       -0.2296031739
 C         -2.2618622936        0.6691261785        0.3042132891
 C         -1.1581940217        1.5401050470        0.4917376606
 C         -1.6444304449        2.6553053388        1.1100066472
 N         -2.9875489610        2.5320966915        1.3208786727
 C         -3.4004482532        1.3296111484        0.8407519427
 N         -4.6596265355        0.8799768793        0.8821103531
 C         -4.8819368805       -0.3127377385        0.3698129616
 H          3.6493377430       -1.7444096879        0.6922582239
 H          2.1113919256       -3.2751681455        0.1322484448
 H          2.1060238958       -1.4071839679       -2.2017406912
 H          2.2732879382       -3.1685445273       -2.2247220956
 H         -0.1289568139       -3.4534026277       -1.9301022740
 H         -0.0377045917       -2.1161803094       -3.0938236571
 H         -0.0995510704       -0.4727967349       -1.2589459818
 H         -0.0728204381       -2.7943353473        0.6951317622
 H          0.4452591223       -1.1282772406        0.9839716435
 H         -2.3595038254       -3.4782433795       -1.6033974576
 H         -0.1422525581        1.3635659703        0.1980501169
 H         -1.1203911137        3.5384490840        1.4174366667
 H         -5.8994146746       -0.6721927443        0.4048856902
 H         -3.5856321745        3.2113404569        1.7600942255
 H          5.0717582381        1.8478929490       -1.3938351633
 H          4.5860839367        3.4669796944       -0.8680210459
 H          3.3622757335        2.3026136272       -1.3888885188
 H          3.3349711224        3.7218337334        1.3839606303
 H          2.9753553295        2.2674433137        2.3269619198
 H          2.1332742388        2.5652199514        0.8013760773
 H          5.4295073309        1.6767969904        2.3172308582
 H          6.2891394681        1.4989507908        0.7864045382
 H          5.8079369615        3.1078184652        1.3460684441
  48
        -73.17181662
 C          6.7159015591        0.2982731513       -0.3143218237
 C          5.7204573319        1.3297432042        0.2147580719
 C          5.7944511502        1.4397047900        1.7370430572
 C          5.9600354309        2.6923565534       -0.4356964345
 O          4.3675955141        0.9813920902       -0.1989549268
 C          3.7883187014       -0.1671508183        0.1794201005
 O          4.2922696202       -1.0265950767        0.8840546293
 N          2.5492231126       -0.2429093779       -0.3353662481
 C          1.6640481484       -1.3655859023       -0.1136231294
 C          1.1913214799       -1.9767667462       -1.4356444025
 C          0.0279876547       -1.0839808464       -1.8708591479
 C         -0.6174648032       -0.5626642316       -0.5690691015
 C          0.3610208497       -0.9291330857        0.5676494057
 N         -1.9242396154       -1.1340313611       -0.3430721005
 C         -2.2451782626       -2.4590962978       -0.3537633521
 N         -3.4954796490       -2.7100014015       -0.1079553567
 C         -4.0728106619       -1.4765402624        0.0893445660
 C         -3.0840717170       -0.4733947918       -0.0530006731
 C         -3.4568036945        0.8624148392        0.1135740072
 C         -2.8728403605        2.1553034349        0.0845827502
 C         -3.8739443853        3.0449158242        0.3480916133
 N         -5.0508927544        2.3849689832        0.5402707205
 C         -4.8356261285        1.0498838234        0.4072763595
 N         -5.7794272117        0.1116139328        0.5395124012
 C         -5.3977378691       -1.1384532465        0.3833651703
 H          2.2336987989        0.5252537011       -0.9069478038
 H          2.2325737930       -2.0700276942        0.4982971566
 H          1.9893339591       -2.0102744223       -2.1736210407
 H          0.8509195495       -2.9949553324       -1.2521063824
 H         -0.6965030443       -1.6237285694       -2.4783245598
 H          0.3958668175       -0.2451167962       -2.4591384937
 H         -0.7703917784        0.5154727738       -0.6211703095
 H         -0.0427427289       -1.7641611786        1.1396378228
 H          0.5264737219       -0.0994841164        1.2513521898
 H         -1.5198226135       -3.2228689754       -0.5521754922
 H         -1.8474914552        2.4045270225       -0.1007029545
 H         -3.8261141277        4.1136647229        0.4124769514
 H         -6.1588612528       -1.8964362137        0.4923455017
 H         -5.9412687650        2.8036445446        0.7499409816
 H          5.0590388028        2.1558080583        2.0963880494
 H          6.7856341608        1.7708161739        2.0296235797
 H          5.5955601442        0.4732771466        2.1940229697
 H          7.7259011795        0.6063113940       -0.0637970095
 H          6.6268514986        0.2128883149       -1.3948959545
 H          6.5223616675       -0.6743428426        0.1316732907
 H          5.8711978628        2.6088352678       -1.5149849521
 H          5.2238200132        3.4073791211       -0.0801461555
 H          6.9538076463        3.0472914595       -0.1847866875
  48
        -73.17179746
 C          5.8737895119        1.0635347201        1.9087548609
 C          5.7471755222        1.2527333082        0.3977955497
 C          5.9849304688        2.7140327875        0.0162275686
 C          6.7089257955        0.3360537114       -0.3569485155
 O          4.3764479737        1.0023111265       -0.0277211008
 C          3.7944913332       -0.1945995880        0.1365553090
 O          4.3081165419       -1.1782643801        0.6442179749
 N          2.5394958264       -0.1594076445       -0.3428932921
 C          1.6546421475       -1.3040482169       -0.3379564141
 C          1.1887175840       -1.6600168081       -1.7528107587
 C          0.0266215623       -0.7021421749       -2.0204367117
 C         -0.6267104427       -0.4333734536       -0.6480395194
 C          0.3482458110       -1.0015419065        0.4060405009
 N         -1.9321882883       -1.0409153795       -0.5387570086
 C         -2.2497594369       -2.3394553726       -0.8064820604
 N         -3.4991512975       -2.6366847667       -0.6133481378
 C         -4.0792176271       -1.4669643552       -0.1789117195
 C         -3.0933084067       -0.4524943605       -0.1246312185
 C         -3.4695278305        0.8246408575        0.2977883117
 C         -2.8895449491        2.1007697668        0.5177836034
 C         -3.8926843793        2.9194640439        0.9494864760
 N         -5.0670593356        2.2307111403        1.0132381324
 C         -4.8482292486        0.9472152205        0.6243956025
 N         -5.7889718441       -0.0019753151        0.5743318945
 C         -5.4043494490       -1.1966450765        0.1774628506
 H          2.2219319569        0.7045440719       -0.7540909278
 H          2.2214957257       -2.1098406739        0.1343888363
 H          1.9903777395       -1.5559992336       -2.4802565871
 H          0.8487217833       -2.6946767563       -1.7628979968
 H         -0.6934867419       -1.1191709193       -2.7223881518
 H          0.3966670115        0.2320254110       -2.4394052075
 H         -0.7837093889        0.6352392164       -0.4999968676
 H         -0.0565926344       -1.9279391555        0.8127760474
 H          0.5094639221       -0.3115652388        1.2312666278
 H         -1.5228230230       -3.0484269965       -1.1495844806
 H         -1.8654513813        2.3845479974        0.3819788541
 H         -3.8480443341        3.9559964315        1.2181921430
 H         -6.1627823370       -1.9641249929        0.1393561358
 H         -5.9583788608        2.5982001244        1.3005063042
 H          6.9930337126        3.0043604910        0.2921160319
 H          5.2742497293        3.3526587880        0.5326435646
 H          5.8551750058        2.8432764888       -1.0543486442
 H          5.1608554158        1.7010408976        2.4265902277
 H          6.8787662013        1.3244626884        2.2244832997
 H          5.6770782355        0.0279963976        2.1759302290
 H          7.7311234197        0.5805431280       -0.0867162725
 H          6.5154239625       -0.7033310577       -0.1027072343
 H          6.5835094508        0.4643567251       -1.4296042389
  48
        -73.17172486
 C          6.4418733519       -0.8203385394       -0.6302441226
 C          5.4583459739       -0.7751887657        0.5379886807
 C          5.1665861017       -2.1863071991        1.0492460232
 C          5.9812139837        0.1085816099        1.6693947049
 O          4.1594177164       -0.2946064162        0.0859551350
 C          4.0114178527        0.9188735096       -0.4530816005
 O          4.8961471145        1.7508658432       -0.5989426204
 N          2.7477733286        1.1510811079       -0.8501372030
 C          1.6145034643        0.2672453021       -0.6652955932
 C          0.6484064868        0.3641709426       -1.8587782884
 C         -0.4816536924        1.2737589764       -1.3818887950
 C         -0.6538446812        0.8792820984        0.0905768491
 C          0.7828393811        0.6696972226        0.5765964868
 N         -1.4598535471       -0.3169639615        0.2046250591
 C         -1.0676033170       -1.6210632768        0.2428796725
 N         -2.0468366599       -2.4743000431        0.2947959471
 C         -3.1895986116       -1.7083062309        0.2785771423
 C         -2.8262347982       -0.3429316745        0.2118932923
 C         -3.8353531834        0.6205058836        0.1686838260
 C         -3.9726362423        2.0295312490        0.0810752782
 C         -5.3120582457        2.2926524167        0.0809936195
 N         -6.0206148793        1.1303111798        0.1624316121
 C         -5.1520494828        0.0865541110        0.2141783428
 N         -5.5094869622       -1.2000271592        0.2874162512
 C         -4.5360538234       -2.0860481175        0.3167679206
 H          2.5676210194        2.0793041114       -1.2034978661
 H          2.0261188044       -0.7376680464       -0.5638901534
 H          1.1487720625        0.7465680213       -2.7451032014
 H          0.2531708223       -0.6245341458       -2.0914384186
 H         -1.3999062996        1.1368000436       -1.9502090221
 H         -0.1874618568        2.3205665460       -1.4395377910
 H         -1.1670901603        1.6526882166        0.6673432523
 H          0.8399487792       -0.0697926459        1.3718233002
 H          1.1660136583        1.6107699604        0.9697315729
 H         -0.0387390525       -1.9188052567        0.2374765238
 H         -3.1860393411        2.7537991813        0.0171733193
 H         -5.8134975137        3.2383807182        0.0273451501
 H         -4.8273550586       -3.1243186531        0.3708592652
 H         -7.0226280277        1.0424855623        0.1770756304
 H          4.4370814160       -2.1473801092        1.8531166644
 H          6.0812893311       -2.6368221987        1.4192006376
 H          4.7671903967       -2.7984570213        0.2455738533
 H          7.3798091983       -1.2536462518       -0.2981981064
 H          6.6286817605        0.1835486129       -1.0038294810
 H          6.0358725344       -1.4253541853       -1.4377825678
 H          6.9124349183       -0.3000356063        2.0481733453
 H          6.1597276591        1.1176484620        1.3057971746
 H          5.2547915785        0.1493950321        2.4777245092
  48
        -73.17162854
 C          6.9194246830       -0.1425111394       -0.3762300326
 C          6.1238320607        0.6116078017        0.6878558444
 C          6.0574236068       -0.1789560372        1.9938067082
 C          6.7227627429        1.9975974261        0.9273836512
 O          4.7792898443        0.8956829428        0.2035494784
 C          3.9253418330       -0.0828053405       -0.1274500970
 O          4.1455866767       -1.2808515955       -0.0624013324
 N          2.7701282306        0.4532630671       -0.5602735143
 C          1.6179337611       -0.3266511181       -0.9387547071
 C          1.0586009150        0.0740610048       -2.3093081502
 C         -0.3855924073       -0.4067723774       -2.2549521709
 C         -0.8343248486       -0.0368747914       -0.8319405866
 C          0.4355771683       -0.1487960561        0.0377315657
 N         -1.9119257153       -0.8647933021       -0.3526635653
 C         -1.8896964830       -2.2187940394       -0.1913057786
 N         -2.9966026871       -2.7222127295        0.2645612577
 C         -3.8359107156       -1.6441834707        0.4299030115
 C         -3.1570006334       -0.4641712385        0.0427575701
 C         -3.8298155909        0.7566241166        0.1343469207
 C         -3.6006914330        2.1346776707       -0.1144759296
 C         -4.7502152099        2.7909408395        0.2185865670
 N         -5.6862026804        1.9046446341        0.6614553131
 C         -5.1609731465        0.6520878120        0.6241362144
 N         -5.8127311922       -0.4558525605        0.9930214909
 C         -5.1538755473       -1.5911573952        0.8955026229
 H          2.6916302384        1.4594434056       -0.5458027378
 H          1.9535231570       -1.3675145011       -0.9505506663
 H          1.0892981267        1.1591451023       -2.4087909482
 H          1.6191954824       -0.3689748665       -3.1284441189
 H         -0.4263461684       -1.4886523737       -2.3833099166
 H         -1.0140738532        0.0547127669       -3.0135504021
 H         -1.2069034944        0.9884510966       -0.8201834260
 H          0.3636007932       -0.9910122732        0.7238519507
 H          0.5752593773        0.7518480916        0.6333141399
 H         -1.0253258531       -2.8106874484       -0.4206264561
 H         -2.7073899177        2.5906682277       -0.4908220302
 H         -4.9658124467        3.8395986924        0.1697697326
 H         -5.6798390084       -2.4855002336        1.1938157795
 H         -6.6188633982        2.1255595075        0.9673401933
 H          5.4639770590        0.3612388731        2.7278357421
 H          7.0600232754       -0.3232136774        2.3832994425
 H          5.6018692880       -1.1511378329        1.8216861229
 H          7.9426942252       -0.2743161052       -0.0393847641
 H          6.9200918537        0.4176686129       -1.3084861794
 H          6.4770467325       -1.1196404804       -0.5544292796
 H          6.7349982791        2.5613739130       -0.0009240067
 H          6.1246545856        2.5385829143        1.6550190128
 H          7.7366081450        1.8988485205        1.2999499442
  48
        -73.17156359
 C          6.2926755262       -0.6111081765        1.2800251354
 C          5.5739997351       -0.8755303970       -0.0419401513
 C          6.3578478505       -0.3065267145       -1.2234827130
 C          5.3287216061       -2.3728476484       -0.2309473853
 O          4.2328165305       -0.3073300258       -0.0087669586
 C          4.0312955972        1.0047977812        0.1416258186
 O          4.9038987820        1.8520856102        0.2728225203
 N          2.7267170328        1.3296222690        0.1450736111
 C          1.6039092257        0.4347387172       -0.0471765824
 C          0.7757799532        0.8325377849       -1.2855769132
 C         -0.4303914115        1.5865972443       -0.7313734241
 C         -0.7522826039        0.8315962644        0.5646473576
 C          0.6274920940        0.5147276617        1.1480483029
 N         -1.5233698987       -0.3591177736        0.2787114557
 C         -1.0932106501       -1.6294881389        0.0397509727
 N         -2.0412138068       -2.4723184069       -0.2440225157
 C         -3.1999326077       -1.7312302690       -0.2113064792
 C         -2.8791035337       -0.3914346100        0.1089497296
 C         -3.9087442648        0.5483102217        0.1792415635
 C         -4.0828271440        1.9341983329        0.4259947263
 C         -5.4205063984        2.1847975295        0.3211722115
 N         -6.0931955530        1.0367094297        0.0226796101
 C         -5.2019452110        0.0154692274       -0.0753632143
 N         -5.5205020688       -1.2501256375       -0.3678251592
 C         -4.5271465753       -2.1116405069       -0.4365767743
 H          2.5286780375        2.3156816808        0.2337927245
 H          2.0290070916       -0.5624646410       -0.1598649189
 H          1.3629338120        1.4322497356       -1.9773459435
 H          0.4441611894       -0.0641408720       -1.8089781669
 H         -1.2741779803        1.5932473124       -1.4191683155
 H         -0.1669419317        2.6155060479       -0.4914189404
 H         -1.3543589512        1.4308491447        1.2520400490
 H          0.6184071154       -0.3981746617        1.7387535488
 H          0.9316772181        1.3307027228        1.8021885592
 H         -0.0613042665       -1.9125175444        0.0874261428
 H         -3.3197637330        2.6538449953        0.6429960633
 H         -5.9440984675        3.1124985148        0.4394045700
 H         -4.7861089465       -3.1318696500       -0.6771406309
 H         -7.0860222592        0.9462588625       -0.1119230099
 H          7.3250014515       -0.7947085555       -1.2861301826
 H          6.5088745028        0.7625294402       -1.0945477524
 H          5.8125920193       -0.4752564741       -2.1493558917
 H          6.4415372451        0.4568485936        1.4198473511
 H          7.2592750442       -1.1043675675        1.2721670786
 H          5.7031052144       -0.9950988002        2.1093799582
 H          4.7414363054       -2.7610540700        0.5963722326
 H          4.7857327480       -2.5468840493       -1.1556211595
 H          6.2779271657       -2.8961781343       -0.2708789549
  48
        -73.17149097
 C          6.0593877191       -0.2308045022        1.9703220403
 C          6.0806970666        0.6714594139        0.7374016026
 C          6.6060554324        2.0615749238        1.0965975303
 C          6.9122253415        0.0551111369       -0.3864413062
 O          4.7216342702        0.9241540734        0.2765719417
 C          3.9197113890       -0.0674583295       -0.1353731658
 O          4.2044882157       -1.2531015151       -0.1729297966
 N          2.7333462690        0.4391715481       -0.5162995167
 C          1.6289547972       -0.3674210059       -0.9746440627
 C          1.0633787842        0.1214948909       -2.3152921190
 C         -0.3773084191       -0.3722343022       -2.3011320084
 C         -0.8257705673       -0.1031274325       -0.8572487655
 C          0.4321063433       -0.3426110651        0.0022013402
 N         -1.9430325986       -0.9172901179       -0.4515608764
 C         -1.9944954194       -2.2799705487       -0.4270854828
 N         -3.1248429991       -2.7660975965       -0.0117790032
 C         -3.9029500887       -1.6665465867        0.2696436552
 C         -3.1621300306       -0.4920294618       -0.0040049104
 C         -3.7657499987        0.7477349008        0.2195876259
 C         -3.4618691143        2.1295150173        0.1111498894
 C         -4.5709418439        2.8099031296        0.5232485787
 N         -5.5520718329        1.9352791713        0.8839123148
 C         -5.0977226984        0.6663743649        0.7117564644
 N         -5.8083327222       -0.4362556398        0.9718920645
 C         -5.2139203634       -1.5897977807        0.7515372152
 H          2.6038343352        1.4359488404       -0.4259670077
 H          2.0246319576       -1.3823407497       -1.0703678095
 H          1.0843543782        1.2111336173       -2.3401595029
 H          1.6294081228       -0.2577203554       -3.1621960234
 H         -0.4104350930       -1.4424588667       -2.5051734827
 H         -1.0066951765        0.1384096515       -3.0268419423
 H         -1.1505989038        0.9343558256       -0.7644273518
 H          0.3528947439       -1.2844140805        0.5425584531
 H          0.5592191121        0.4502852150        0.7372548327
 H         -1.1654742151       -2.8923635785       -0.7229844905
 H         -2.5463678996        2.5722697649       -0.2258139365
 H         -4.7279188760        3.8683060497        0.5849820396
 H         -5.7870327269       -2.4800927883        0.9622076204
 H         -6.4686351523        2.1742847997        1.2229383889
 H          5.9828782493        2.5055108492        1.8676797506
 H          6.5857547440        2.7033074607        0.2205246244
 H          7.6249481069        1.9845584985        1.4607791547
 H          7.0682542229       -0.3476706538        2.3524124778
 H          5.6629325554       -1.2099931196        1.7130026968
 H          5.4337023220        0.2083906089        2.7439752035
 H          6.5194302584       -0.9235876737       -0.6514128226
 H          6.8837092901        0.6944742619       -1.2657183850
 H          7.9410899180       -0.0543763040       -0.0591304244
  48
        -73.17145010
 C          5.9702474291       -0.6082625901       -1.7119856207
 C          5.9369795189       -0.0163744505       -0.3036625180
 C          6.7544062377       -0.8753404507        0.6613652567
 C          6.4401181054        1.4263944138       -0.2976065955
 O          4.5850827960       -0.0796680970        0.2360458192
 C          3.5633614824        0.5667066745       -0.3438009897
 O          3.6266379638        1.2520440205       -1.3511733400
 N          2.4354680094        0.3530598716        0.3553759996
 C          1.1525133463        0.9166451774       -0.0094132398
 C          0.5219323942        1.6706479443        1.1757092008
 C         -0.5329881016        0.7369249973        1.7915838825
 C         -0.4658074041       -0.5741307656        0.9883718943
 C          0.1440715164       -0.1812262935       -0.3622246951
 N         -1.7423473666       -1.2310872258        0.8652470588
 C         -2.0067590549       -2.4994673405        1.2889774695
 N         -3.2225068153       -2.8987864740        1.0761816610
 C         -3.8393316143       -1.8333865400        0.4632579708
 C         -2.9131553832       -0.7700192760        0.3211595428
 C         -3.3547545494        0.4115364386       -0.2846327371
 C         -2.8551517954        1.6911587392       -0.6446484137
 C         -3.8866614465        2.3694840449       -1.2258465525
 N         -5.0053705685        1.5918070757       -1.2514029869
 C         -4.7196999341        0.3894115307       -0.6873086434
 N         -5.5990219968       -0.6089506244       -0.5555666262
 C         -5.1579871118       -1.7096393324        0.0143764441
 H          2.4992840923       -0.2344472837        1.1722286739
 H          1.3575573323        1.5702651215       -0.8607816005
 H          1.2923953855        1.9388527528        1.8956780330
 H          0.0649962708        2.5945649889        0.8271625018
 H         -1.5298161433        1.1654060781        1.7006062047
 H         -0.3467473148        0.5546438747        2.8479623766
 H          0.1916899550       -1.2889755520        1.4919860818
 H         -0.6292821163        0.2179652723       -1.0156978394
 H          0.6198163694       -1.0212054372       -0.8648302579
 H         -1.2584549846       -3.1062543553        1.7607188875
 H         -1.8638381100        2.0684096476       -0.5010745144
 H         -3.8975242095        3.3634574335       -1.6265130300
 H         -5.8632893868       -2.5198096860        0.1223987738
 H         -5.9032915256        1.8495937557       -1.6246098876
 H          7.7921170760       -0.8930313206        0.3460524656
 H          6.3667377259       -1.8899157825        0.6744630301
 H          6.6918221931       -0.4660852607        1.6655702031
 H          5.5790788233       -1.6230812932       -1.7002088147
 H          6.9928169589       -0.6255188120       -2.0749483689
 H          5.3656501828       -0.0071123007       -2.3868440693
 H          6.3781942728        1.8395035020        0.7065356043
 H          7.4728744644        1.4521895071       -0.6299721272
 H          5.8383095856        2.0373159967       -0.9661119209
  48
        -73.17141120
 C          6.4501088366        1.4106910005        0.1274250791
 C          5.9133592417        0.0642560231       -0.3559810515
 C          5.8927842648       -0.0083343354       -1.8821723611
 C          6.7372366330       -1.0842075646        0.2265317802
 O          4.5760431329       -0.1645595111        0.1751930992
 C          3.5531914665        0.6527243459       -0.1139710028
 O          3.6041765391        1.6422382462       -0.8258141178
 N          2.4404965614        0.2254313121        0.5074830234
 C          1.1552170073        0.8797477683        0.3771925330
 C          0.5177581120        1.1251213964        1.7563380009
 C         -0.5291711172        0.0193755519        1.9702682767
 C         -0.4555637433       -0.8865774882        0.7281991099
 C          0.1526702767       -0.0062682403       -0.3696478471
 N         -1.7287356000       -1.4529147602        0.3611916935
 C         -1.9873378683       -2.7883124724        0.2711212503
 N         -3.2004486767       -3.0818973265       -0.0823212840
 C         -3.8213206587       -1.8662706182       -0.2487223440
 C         -2.9007177133       -0.8246820636        0.0276364641
 C         -3.3473930010        0.4965255323       -0.0862925994
 C         -2.8548871836        1.8190908212        0.0713161108
 C         -3.8880798967        2.6629522768       -0.2154528722
 N         -5.0010840250        1.9485398590       -0.5436782302
 C         -4.7101822921        0.6232437265       -0.4766569191
 N         -5.5836850201       -0.3540409484       -0.7395687251
 C         -5.1388435748       -1.5868863720       -0.6252348392
 H          2.5106885609       -0.6140181117        1.0615584216
 H          1.3580975634        1.8074029228       -0.1636347913
 H          1.2848337834        1.1085778259        2.5276791578
 H          0.0523400902        2.1083674142        1.7797166653
 H         -1.5292380393        0.4426918430        2.0498142274
 H         -0.3383131102       -0.5503851289        2.8773846133
 H          0.2052912107       -1.7365172316        0.9227498706
 H         -0.6221782734        0.6081248203       -0.8242063687
 H          0.6334216002       -0.5892555180       -1.1530666246
 H         -1.2367978580       -3.5257998624        0.4792458470
 H         -1.8669376216        2.1177158166        0.3547479090
 H         -3.9038381380        3.7346096582       -0.2073167466
 H         -5.8399368159       -2.3803694462       -0.8357384923
 H         -5.8988436728        2.3246877230       -0.7979001262
 H          5.4776585984       -0.9602482676       -2.2055768635
 H          6.9040259490        0.0867794263       -2.2643743827
 H          5.2841379718        0.7958034895       -2.2886832070
 H          5.8440691805        2.2214083930       -0.2697429127
 H          7.4733950459        1.5364658154       -0.2113982591
 H          6.4261808371        1.4543336019        1.2138933251
 H          7.7640385384       -1.0074585709       -0.1144314942
 H          6.7158368026       -1.0426881718        1.3117456738
 H          6.3239462516       -2.0363556134       -0.0935310709
  48
        -73.17139466
 C          6.1300597083       -1.1578878548       -0.3654648334
 C          4.9083233893       -1.2148447105        0.5500827611
 C          4.2532916046       -2.5951217301        0.4874726720
 C          5.2777714111       -0.8602565667        1.9895667148
 O          3.8705051340       -0.3161800517        0.0618448496
 C          4.0789078930        0.9988057582       -0.0511857159
 O          5.1012264503        1.5917605024        0.2621310886
 N          3.0180601553        1.6384576207       -0.5772829704
 C          1.7489563477        1.0369134529       -0.9095641287
 C          1.0607246176        1.7203236282       -2.0910546950
 C         -0.3757862215        1.2129210507       -1.9958567939
 C         -0.6637914301        1.0735140336       -0.4825860092
 C          0.7061569265        1.1580445459        0.2148711103
 N         -1.3530235621       -0.1611848918       -0.1921469151
 C         -0.8222076082       -1.4170174925       -0.1876710936
 N         -1.6783843223       -2.3596570658        0.0682070673
 C         -2.8801349411       -1.7116093249        0.2405232005
 C         -2.6841846764       -0.3201788184        0.0706321135
 C         -3.7841482257        0.5316576616        0.1914211281
 C         -4.0902527451        1.9140799046        0.1007722928
 C         -5.4284275216        2.0364045857        0.3404787555
 N         -5.9783373000        0.8113946090        0.5753740755
 C         -5.0051127015       -0.1331214607        0.4907268657
 N         -5.2019637628       -1.4449055784        0.6602220636
 C         -4.1481897496       -2.2237319834        0.5341989711
 H          3.0879188874        2.6451427881       -0.6106301513
 H          1.9411291607       -0.0138587761       -1.1384165406
 H          1.0915294416        2.8008694660       -1.9506611591
 H          1.5239447653        1.4770338282       -3.0437182680
 H         -0.4560375957        0.2303729478       -2.4631991313
 H         -1.0847687786        1.8781613390       -2.4830782876
 H         -1.3186247777        1.8729422749       -0.1333986302
 H          0.8251376112        0.3883500282        0.9747515085
 H          0.8181729301        2.1290006061        0.6965508585
 H          0.2168955133       -1.6020066268       -0.3757710336
 H         -3.4163829221        2.7175445852       -0.1182396328
 H         -6.0315563416        2.9221708532        0.3590894051
 H         -4.3086392969       -3.2829016029        0.6685301613
 H         -6.9456071597        0.6210545885        0.7760952992
 H          3.9712484400       -2.8285071958       -0.5353520045
 H          3.3611593971       -2.6136915462        1.1074324702
 H          4.9496467232       -3.3461935763        0.8444508372
 H          6.8617895116       -1.8899333010       -0.0393738550
 H          6.5799017522       -0.1685083381       -0.3313469392
 H          5.8398481047       -1.3764994689       -1.3906394730
 H          5.7122149667        0.1356375647        2.0312420067
 H          4.3920603864       -0.8842270238        2.6202956042
 H          6.0008380651       -1.5769133726        2.3653963294
  48
        -73.17138139
 C          5.2703774237       -1.1189873860        1.8614889222
 C          4.9012812292       -1.2566689438        0.3853238437
 C          6.1230124825       -1.0640321689       -0.5115611494
 C          4.2472267422       -2.6128270277        0.1183576260
 O          3.8628636700       -0.2961844607        0.0356379169
 C          4.0708976330        1.0213639851        0.1158103268
 O          5.0922590999        1.5624333098        0.5144521271
 N          3.0114176539        1.7306172212       -0.3155740011
 C          1.7416791124        1.1820736557       -0.7275294168
 C          1.0516752762        2.0200100410       -1.8036917802
 C         -0.3827784668        1.4976429514       -1.7810069787
 C         -0.6696227059        1.1419819291       -0.3029605007
 C          0.6985036771        1.1481534034        0.4022158848
 N         -1.3401977770       -0.1316879247       -0.1898128418
 C         -0.7866977263       -1.3699514258       -0.3287611987
 N         -1.6299915626       -2.3503812419       -0.2072150645
 C         -2.8464300133       -1.7477657351        0.0183291823
 C         -2.6730863382       -0.3431344429        0.0224818595
 C         -3.7911936923        0.4701134919        0.2184151458
 C         -4.1216845846        1.8483324560        0.2818414299
 C         -5.4667200312        1.9196298012        0.5028205537
 N         -5.9977157815        0.6665276468        0.5814054353
 C         -5.0051262473       -0.2454409349        0.4096968686
 N         -5.1801458942       -1.5712670252        0.4194934522
 C         -4.1097584857       -2.3120461176        0.2235070574
 H          3.0807850379        2.7314185166       -0.2013735474
 H          1.9333197894        0.1727213922       -1.0988573506
 H          1.0778926768        3.0707935860       -1.5149718250
 H          1.5162182903        1.9128205921       -2.7804288789
 H         -0.4592657932        0.5916914303       -2.3839283304
 H         -1.0949335898        2.2225243633       -2.1682158448
 H         -1.3368184364        1.8742230920        0.1540075187
 H          0.8248120457        0.2890281698        1.0578265999
 H          0.8007991588        2.0509385997        1.0037326677
 H          0.2585574077       -1.5143644413       -0.5179301885
 H         -3.4586726860        2.6826035636        0.1720032239
 H         -6.0873494781        2.7868604624        0.6094965689
 H         -4.2525122165       -3.3822142136        0.2281504241
 H         -6.9650757160        0.4383382280        0.7369987958
 H          5.8331652530       -1.1289674458       -1.5578498601
 H          6.8553374882       -1.8356449736       -0.2971482059
 H          6.5719838491       -0.0902412055       -0.3315407847
 H          5.7010307368       -0.1386582147        2.0508214572
 H          5.9963768205       -1.8808001528        2.1264727484
 H          4.3851332543       -1.2399022264        2.4816776356
 H          3.3546873654       -2.7238490281        0.7280154643
 H          3.9660660190       -2.6922120306       -0.9279829161
 H          4.9438717496       -3.4081072334        0.3605411299
  48
        -73.17133036
 C          3.3423826498        2.7894252126       -1.3966251724
 C          4.2222153392        1.5976729560       -1.0179253432
 C          4.6677086800        0.8394171448       -2.2672638314
 C          5.4219449063        2.0556268372       -0.1903367008
 O          3.3420843654        0.7622677301       -0.2117438545
 C          3.7604957102       -0.3858883877        0.3258835210
 O          4.8745100600       -0.8740064692        0.1968114169
 N          2.8083367198       -0.9776501349        1.0712724133
 C          1.4397481957       -0.5329988088        1.2092298919
 C          0.8992589199       -0.8018342933        2.6216234413
 C         -0.5941313681       -1.0344808557        2.4225632399
 C         -0.6432850765       -1.8528643895        1.1262022642
 C          0.4748124905       -1.2658295806        0.2466975008
 N         -1.9364706280       -1.8490698747        0.4913684347
 C         -2.7029670362       -2.9592207403        0.2940242831
 N         -3.8444039204       -2.7340878475       -0.2795155383
 C         -3.8682303475       -1.3756311329       -0.4917358204
 C         -2.6660512195       -0.8011200635       -0.0080288596
 C         -2.4994111877        0.5822359024       -0.1378200572
 C         -1.5409441818        1.5862781223        0.1610865616
 C         -2.0627563197        2.7724119519       -0.2664447384
 N         -3.2938213608        2.5730123250       -0.8156258762
 C         -3.5943913654        1.2496077222       -0.7555871243
 N         -4.7315978361        0.7146794817       -1.2111832327
 C         -4.8630956409       -0.5875663603       -1.0789208750
 H          3.0497397411       -1.8864053587        1.4394731399
 H          1.4467837761        0.5370364265        0.9958501266
 H          1.3636214894       -1.7050125893        3.0185771410
 H          1.1068902095        0.0190478422        3.3030627657
 H         -1.1192876330       -0.0906881252        2.2828056034
 H         -1.0503478874       -1.5635119817        3.2568399757
 H         -0.4222582747       -2.8999813649        1.3546922334
 H          0.0559733615       -0.5751531694       -0.4825880258
 H          1.0001861777       -2.0477315962       -0.2996037859
 H         -2.3734664092       -3.9348818404        0.5943584918
 H         -0.5874121256        1.4570227371        0.6292995319
 H         -1.6349699980        3.7536975671       -0.2158234523
 H         -5.7787454113       -1.0256531610       -1.4466204430
 H         -3.8959137757        3.2783685776       -1.2054694462
 H          5.2689487478       -0.0227915376       -1.9888076067
 H          5.2608160514        1.4940661646       -2.8976593013
 H          3.7997296429        0.4966522074       -2.8258663185
 H          3.9073462778        3.4776976601       -2.0159256576
 H          3.0097805165        3.3056162323       -0.5007598883
 H          2.4702398251        2.4468616383       -1.9461402064
 H          6.0296754289        1.2006086813        0.0959689090
 H          6.0279802045        2.7383480177       -0.7771375073
 H          5.0839546248        2.5628987481        0.7103563280
  48
        -73.17132606
 C          5.4938140056        1.9635148568       -0.1330663843
 C          4.2978239791        1.5485511075       -0.9882255555
 C          3.4588544198        2.7686859325       -1.3691678000
 C          4.7449063665        0.7916282748       -2.2377160606
 O          3.3799203851        0.7297632453       -0.2074532930
 C          3.7562458670       -0.4352988827        0.3248994535
 O          4.8584810347       -0.9528694143        0.2099640303
 N          2.7752106693       -1.0097593630        1.0456297069
 C          1.4183689093       -0.5296136088        1.1770668730
 C          0.8931338080       -0.7013779010        2.6106878725
 C         -0.6080099506       -0.9089997866        2.4452839223
 C         -0.6948842214       -1.8030003205        1.2019153828
 C          0.4259736921       -1.3003080912        0.2746122333
 N         -1.9949654271       -1.8052475610        0.5812788894
 C         -2.7893060896       -2.9064033003        0.4575139084
 N         -3.9270324943       -2.6904334086       -0.1268605799
 C         -3.9180535897       -1.3483983345       -0.4265798552
 C         -2.7007133638       -0.7738188222        0.0174607402
 C         -2.5016838780        0.5942263594       -0.1991451138
 C         -1.5196176145        1.5920744846        0.0371233390
 C         -2.0139954969        2.7612365101       -0.4634541778
 N         -3.2495777473        2.5567538121       -1.0004825090
 C         -3.5812980770        1.2471677584       -0.8580192272
 N         -4.7308529207        0.7114305101       -1.2807708684
 C         -4.8940703809       -0.5758177011       -1.0638581391
 H          2.9907619695       -1.9228813985        1.4191356502
 H          1.4434313689        0.5251438727        0.9000025582
 H          1.3424888247       -1.5904629811        3.0540572529
 H          1.1306920131        0.1531802430        3.2389834651
 H         -1.1126516735        0.0371980889        2.2553797040
 H         -1.0645106113       -1.3754507801        3.3159295010
 H         -0.4973772939       -2.8394890978        1.4919675122
 H          0.0143607066       -0.6489434608       -0.4939687970
 H          0.9265427023       -2.1284551245       -0.2247734808
 H         -2.4828539353       -3.8686540842        0.8191656327
 H         -0.5692013797        1.4700120929        0.5134903075
 H         -1.5635847187        3.7336331511       -0.4731001940
 H         -5.8204914271       -1.0145411200       -1.4025978724
 H         -3.8350009656        3.2506670776       -1.4338217115
 H          4.0547837200        3.4483574585       -1.9686672040
 H          3.1230670564        3.2830154247       -0.4733671000
 H          2.5887321363        2.4570721697       -1.9398885440
 H          6.0724713847        1.0888263058        0.1540710827
 H          5.1524547747        2.4690424160        0.7673794025
 H          6.1291580430        2.6364124018       -0.6998737548
 H          3.8780849020        0.4802521984       -2.8161674047
 H          5.3683789825        1.4357995396       -2.8493178896
 H          5.3156334448       -0.0907314095       -1.9582167076
  48
        -73.17132148
 C          5.4107430444        2.0065069265       -0.2786925038
 C          4.2176973297        1.4800557969       -1.0745546165
 C          3.3401464646        2.6350320205       -1.5579584011
 C          4.6730574864        0.6208974940       -2.2530128953
 O          3.3317634069        0.7137894038       -0.2084666857
 C          3.7459273906       -0.3855804631        0.4256888580
 O          4.8606945355       -0.8823556245        0.3462495558
 N          2.7873059576       -0.9126282388        1.2106529763
 C          1.4175090286       -0.4576509852        1.2925080069
 C          0.8452818929       -0.6416981586        2.7056727375
 C         -0.6448200072       -0.8788847535        2.4872739395
 C         -0.6706558494       -1.7710534740        1.2397775699
 C          0.4706894169       -1.2424372784        0.3531560325
 N         -1.9490342114       -1.7974301824        0.5760030327
 C         -2.7181955604       -2.9130534771        0.4254853971
 N         -3.8437966256       -2.7160123853       -0.1882732124
 C         -3.8529393109       -1.3723341857       -0.4808227299
 C         -2.6590138451       -0.7769040947       -0.0021562582
 C         -2.4797073185        0.5954283280       -0.2089003253
 C         -1.5221162593        1.6100729545        0.0547769706
 C         -2.0251259330        2.7718999348       -0.4542249276
 N         -3.2434644600        2.5472290440       -1.0216457045
 C         -3.5544762430        1.2312561235       -0.8920812694
 N         -4.6838973630        0.6765920033       -1.3435832485
 C         -4.8275250996       -0.6148139488       -1.1380869149
 H          3.0213709489       -1.7912417200        1.6497973091
 H          1.4328447652        0.5981242115        1.0170756247
 H          1.2958019111       -1.5221064399        3.1648842760
 H          1.0421931627        0.2166715990        3.3426885389
 H         -1.1611728105        0.0576395276        2.2814336181
 H         -1.1221639567       -1.3563619265        3.3406031027
 H         -0.4617623640       -2.8042234381        1.5337247692
 H          0.0730734218       -0.5945672843       -0.4256143467
 H          1.0040574675       -2.0578315646       -0.1331395073
 H         -2.4028322910       -3.8709992828        0.7908922370
 H         -0.5814244021        1.5035136615        0.5536764560
 H         -1.5921317392        3.7521970499       -0.4500290494
 H         -5.7372027534       -1.0686386200       -1.5014641478
 H         -3.8302679770        3.2317918319       -1.4677600634
 H          2.4722837084        2.2466660693       -2.0833108458
 H          3.9092332319        3.2698610712       -2.2284700200
 H          3.0004103529        3.2236766398       -0.7107344733
 H          6.0170969438        1.1789713075        0.0817821785
 H          5.0652541147        2.5856897111        0.5745361875
 H          6.0204885586        2.6396364393       -0.9151861955
 H          3.8095695024        0.2344679603       -2.7896510899
 H          5.2732419347        1.2205522252       -2.9296704987
 H          5.2698573737       -0.2162843636       -1.8989475023
  48
        -73.17093001
 C          6.3640656924        0.6156799251        0.2879171208
 C          5.0937007686        0.5603071471        1.1348990442
 C          5.2149511625       -0.5130157332        2.2169464196
 C          4.7846489261        1.9202581397        1.7594682899
 O          3.9682778690        0.1117803205        0.3266772878
 C          3.5633550530        0.7920913490       -0.7496522527
 O          4.0334813607        1.8486072158       -1.1489999418
 N          2.5562101815        0.1734601388       -1.3909933393
 C          1.8828995009       -1.0297376446       -0.9430305904
 C          1.2507094554       -1.7600786527       -2.1272130029
 C         -0.0699267198       -1.0244687675       -2.3678656551
 C         -0.5113365094       -0.4799146335       -0.9917162477
 C          0.6818605030       -0.7112329171       -0.0410530501
 N         -1.7063006144       -1.1271209203       -0.5043010916
 C         -1.9315414113       -2.4697859033       -0.4294340393
 N         -3.0883383133       -2.7924961192        0.0648609361
 C         -3.6972758879       -1.5934067096        0.3557548463
 C         -2.8265849325       -0.5338663141        0.0040214123
 C         -3.2457749943        0.7796825276        0.2269602080
 C         -2.7647802585        2.1050937483        0.0679866840
 C         -3.7481385897        2.9368310553        0.5200259966
 N         -4.8168904342        2.2098870204        0.9528019224
 C         -4.5464333885        0.8879865982        0.7916449778
 N         -5.3804063074       -0.1039555326        1.1214920805
 C         -4.9563846345       -1.3312683835        0.9053378523
 H          2.1547665141        0.6839094845       -2.1627852742
 H          2.6254130498       -1.6331492593       -0.4190341277
 H          1.8954047330       -1.7522941203       -3.0024848268
 H          1.0671721563       -2.7956125413       -1.8441545658
 H         -0.8295271363       -1.6780469253       -2.7930935125
 H          0.0755462336       -0.1956360294       -3.0588992278
 H         -0.7525260617        0.5812542599       -1.0606363442
 H          0.4753286056       -1.5668719249        0.6014562999
 H          0.8760769999        0.1516406137        0.5927422705
 H         -1.2096036111       -3.1915408823       -0.7560235564
 H         -1.8154698805        2.4128748179       -0.3225495376
 H         -3.7576553146        4.0077318490        0.5627784685
 H         -5.6294815101       -2.1317273484        1.1733925546
 H         -5.6714642321        2.5774507118        1.3357332606
 H          4.2894503819       -0.5768175398        2.7819290020
 H          6.0279908319       -0.2627960638        2.8898728731
 H          5.4123806708       -1.4793760435        1.7621708551
 H          7.2095940990        0.8720563415        0.9180420452
 H          6.2639739586        1.3665090972       -0.4922111304
 H          6.5459140022       -0.3507170340       -0.1767909748
 H          3.8663561920        1.8654732754        2.3397073946
 H          5.6001253990        2.2139155644        2.4123550329
 H          4.6656732236        2.6719262157        0.9828504641
  48
        -73.17067857
 C          6.7615467978        0.8793552760       -0.9603265723
 C          5.6119409751        0.0055700618       -0.4580786587
 C          5.3246500603       -1.1246198437       -1.4458552533
 C          5.9219854302       -0.5420889167        0.9345755376
 O          4.4822137644        0.9219588323       -0.3984708291
 C          3.2653077812        0.5199505563        0.0049442098
 O          2.9716864977       -0.6099353830        0.3564669787
 N          2.4163393403        1.5636580908       -0.0462879515
 C          1.0192332933        1.5170349966        0.3454860676
 C          0.8435918109        1.2031108017        1.8482652464
 C         -0.3647578773        0.2774811787        1.9354238025
 C         -0.2364295581       -0.5657908704        0.6629251259
 C          0.2276956528        0.4285939169       -0.4100612128
 N         -1.4409692312       -1.2688727091        0.3085884978
 C         -1.5500938745       -2.6236531342        0.2185645764
 N         -2.7307988705       -3.0509022967       -0.1096612251
 C         -3.4871409161       -1.9115971144       -0.2562584458
 C         -2.6829712751       -0.7740732700        0.0060824472
 C         -3.2774406293        0.4894315541       -0.0950560425
 C         -2.9349160526        1.8599783370        0.0542295214
 C         -4.0619971341        2.5819261264       -0.2116738045
 N         -5.0928730091        1.7462512961       -0.5201143950
 C         -4.6531554138        0.4622580758       -0.4589332193
 N         -5.4173482117       -0.6063894301       -0.7069716021
 C         -4.8350959504       -1.7816334582       -0.6048369154
 H          2.8138191441        2.4407062970       -0.3430013189
 H          0.6154162425        2.5026507486        0.1114737635
 H          1.7303568424        0.6731657412        2.1959173907
 H          0.7217707398        2.1055635466        2.4424422981
 H         -1.2961219928        0.8412939993        1.9146543595
 H         -0.3517151024       -0.3368342605        2.8337114293
 H          0.5461150391       -1.3171204152        0.8085903826
 H         -0.6336324275        0.8572322394       -0.9184519878
 H          0.8538143019       -0.0627368882       -1.1522853746
 H         -0.7137895916       -3.2688401121        0.4065225157
 H         -1.9829574248        2.2686712920        0.3244367770
 H         -4.1989409318        3.6447687134       -0.2017865555
 H         -5.4466951171       -2.6486754858       -0.8039572749
 H         -6.0327980781        2.0175478910       -0.7545979749
 H          5.0712432351       -0.7136108849       -2.4204617969
 H          4.4935689658       -1.7311142857       -1.0939708044
 H          6.2033370729       -1.7540800836       -1.5432345729
 H          7.6641516698        0.2838211365       -1.0454414429
 H          6.9354985715        1.6971981502       -0.2670091117
 H          6.5131464089        1.2948635690       -1.9327204305
 H          5.0950444187       -1.1502062538        1.2931545452
 H          6.8171727003       -1.1542068070        0.8930370264
 H          6.0829850084        0.2779277004        1.6306822150
  48
        -73.17043546
 C          6.6622302219        0.1498100673       -0.0657133780
 C          5.4992928480       -0.5335866697        0.6516361902
 C          5.5123737355       -2.0386187852        0.3828157299
 C          5.5334535978       -0.2556969789        2.1536766681
 O          4.2290610201       -0.0924814708        0.0900461401
 C          3.8597071690        1.1903804538        0.1191225259
 O          4.4998013508        2.1088671293        0.6118594500
 N          2.6740019633        1.3983050358       -0.4824804904
 C          1.7879410209        0.3869777869       -1.0122038171
 C          1.1266336585        0.8448321668       -2.3202370231
 C         -0.2068554380        0.1080215487       -2.3399623923
 C         -0.6724906771        0.2037532627       -0.8810203008
 C          0.6186754358        0.0615742949       -0.0521928335
 N         -1.6727184232       -0.7739298584       -0.5362317440
 C         -1.5497322445       -2.1303303995       -0.6079124353
 N         -2.6058708931       -2.7850407002       -0.2307878152
 C         -3.5165377751       -1.8167383794        0.1246081058
 C         -2.9340462061       -0.5405833570       -0.0649391898
 C         -3.6912747404        0.5932696453        0.2393951377
 C         -3.5691243954        2.0069224242        0.2240842963
 C         -4.7548547525        2.5092704777        0.6764820575
 N         -5.6130878346        1.4929869733        0.9737686548
 C         -4.9991007232        0.3078294982        0.7198310456
 N         -5.5598951897       -0.8921248569        0.9036619131
 C         -4.8234094504       -1.9419747056        0.6071867692
 H          2.3259104542        2.3449959978       -0.4298110989
 H          2.3955230371       -0.5029345979       -1.1813621853
 H          0.9550671636        1.9207819901       -2.2816193428
 H          1.7406188434        0.6243730385       -3.1894393623
 H         -0.0596731140       -0.9366771132       -2.6133259772
 H         -0.9233428058        0.5497527392       -3.0292002396
 H         -1.1227582631        1.1825483607       -0.7073411242
 H          0.7092064633       -0.9515216299        0.3360714841
 H          0.6196808449        0.7425184667        0.7975605175
 H         -0.6531105913       -2.6102913536       -0.9470760403
 H         -2.7204915544        2.5863004907       -0.0791678916
 H         -5.0472917114        3.5320074982        0.8073357836
 H         -5.2768994049       -2.9104794753        0.7551162073
 H         -6.5498910921        1.5882213340        1.3278154892
 H          6.4271228030       -2.4710321742        0.7736321022
 H          5.4569788640       -2.2261010094       -0.6856725398
 H          4.6603827390       -2.5096646668        0.8646095707
 H          6.5998291552       -0.0312946272       -1.1362885925
 H          7.6011430133       -0.2458616661        0.3079121100
 H          6.6352915431        1.2223549710        0.1106712862
 H          5.4964385344        0.8152019064        2.3383925536
 H          4.6816055959       -0.7255846822        2.6400480752
 H          6.4495604445       -0.6552609616        2.5764629494
  48
        -73.16990187
 C          7.1492654664        0.1446198300       -0.0523681567
 C          5.7808036307        0.8246214623       -0.0043804198
 C          5.6232544433        1.6230235774        1.2890969821
 C          5.5787006594        1.7131244563       -1.2312954242
 O          4.8414598777       -0.2876106739       -0.0294246138
 C          3.5122261336       -0.0920627339        0.0120622147
 O          2.9591545094        0.9921748078        0.0612172697
 N          2.8958543812       -1.2900297821        0.0092936688
 C          1.4613466551       -1.5161977938       -0.0495904576
 C          0.8099016015       -0.9556868944       -1.3336429701
 C          0.0302634428        0.2781049215       -0.8859211860
 C         -0.4780640746       -0.1060222284        0.5078912220
 C          0.7147309105       -0.8395246729        1.1213336534
 N         -1.6635866435       -0.9308342484        0.4117961395
 C         -1.7812606866       -2.2873729505        0.4226177655
 N         -2.9949452235       -2.7232225731        0.2571166043
 C         -3.7633211956       -1.5915242891        0.1103114890
 C         -2.9267017349       -0.4544578452        0.1989267047
 C         -3.4976255565        0.8120798657        0.0649336416
 C         -3.0992843575        2.1732644527        0.0607185649
 C         -4.2313789297        2.9105297975       -0.1342347658
 N         -5.3144045598        2.0896671515       -0.2527794338
 C         -4.9043510299        0.7988669127       -0.1397898343
 N         -5.7077763450       -0.2675727621       -0.2189445273
 C         -5.1395611422       -1.4490667571       -0.0963161420
 H          3.5084014536       -2.0859100023       -0.0747396674
 H          1.3435856561       -2.5998732849       -0.0112043021
 H          1.5612783533       -0.7116521159       -2.0816146660
 H          0.1300037692       -1.6968863836       -1.7544229200
 H         -0.7801938996        0.5373902295       -1.5649067810
 H          0.7063438436        1.1265828255       -0.7867507390
 H         -0.7550933874        0.7717826221        1.0971208917
 H          0.4161844280       -1.5461662279        1.8922551895
 H          1.3718246900       -0.0966188469        1.5702822870
 H         -0.9461061094       -2.9422851744        0.5643456799
 H         -2.1049303891        2.5548560688        0.1767817413
 H         -4.3401832685        3.9748909346       -0.1974702556
 H         -5.7893064296       -2.3087945054       -0.1636237830
 H         -6.2659091985        2.3781203425       -0.4060733632
 H          4.6440838645        2.0941387552        1.3250593797
 H          6.3866529451        2.3930095380        1.3351852311
 H          5.7286800352        0.9652310798        2.1488297698
 H          7.9319751795        0.8955104165       -0.0424665884
 H          7.2355763828       -0.4512100531       -0.9565004048
 H          7.2685448441       -0.5089868103        0.8069511959
 H          6.3332356373        2.4930784338       -1.2429655783
 H          5.6648828779        1.1208308133       -2.1394285826
 H          4.5945053919        2.1742735767       -1.2046027086
  48
        -73.16985968
 C          7.2417367491       -0.2202407114        0.7015177108
 C          5.9758428230        0.6179480194        0.5214792433
 C          5.6022719387        1.3156198672        1.8285889971
 C          6.1558395843        1.6259902816       -0.6128162541
 O          4.9595581572       -0.3632221403        0.1664352772
 C          3.6885483173       -0.0085457425       -0.0802656827
 O          3.2485046481        1.1279310769       -0.0400598792
 N          2.9725961097       -1.1109733833       -0.3721341312
 C          1.5755211392       -1.1296433920       -0.7535835650
 C          1.2535492086       -0.3111937790       -2.0096831221
 C         -0.2664603889       -0.2011161528       -1.9681425079
 C         -0.6223149689       -0.0791727581       -0.4689378870
 C          0.6388661418       -0.5162385349        0.2995692000
 N         -1.7772433527       -0.8791466454       -0.1362693163
 C         -1.8330515233       -2.2384196464       -0.0487280261
 N         -3.0107872684       -2.7107427044        0.2285622979
 C         -3.8222391325       -1.6040836033        0.3290533323
 C         -3.0508111443       -0.4409890933        0.0921595896
 C         -3.6854458356        0.8024740290        0.1312654304
 C         -3.3734735966        2.1754207207       -0.0433179827
 C         -4.5342849410        2.8685740118        0.1438616557
 N         -5.5551716552        2.0098196582        0.4250933805
 C         -5.0755397771        0.7384912550        0.4247157285
 N         -5.8128800514       -0.3523904357        0.6585255986
 C         -5.1893897998       -1.5106660768        0.6091227062
 H          3.4890758320       -1.9764204893       -0.3781683500
 H          1.3163040625       -2.1770133903       -0.9239840652
 H          1.7124179194        0.6725159066       -1.9105412626
 H          1.6146468478       -0.7825545855       -2.9206881056
 H         -0.7171174492       -1.1110954409       -2.3680461258
 H         -0.6381993446        0.6440482872       -2.5427675111
 H         -0.8804692427        0.9490405855       -0.2137137151
 H          0.4056189526       -1.2081843664        1.1064211098
 H          1.1307254491        0.3581368094        0.7237476297
 H         -0.9713415290       -2.8585917266       -0.1945101234
 H         -2.4188814886        2.6006596392       -0.2803870479
 H         -4.7032631507        3.9257030359        0.0942139257
 H         -5.7858447674       -2.3914909721        0.7935514176
 H         -6.5125461929        2.2614108412        0.6046076382
 H          5.4412508797        0.5786602033        2.6121413533
 H          4.6915292424        1.8952457322        1.6994147590
 H          6.4052382813        1.9820274190        2.1267306156
 H          7.4760700010       -0.7405474653       -0.2226741719
 H          7.0904859369       -0.9563533133        1.4856976490
 H          8.0723390702        0.4234829303        0.9703127169
 H          5.2465832012        2.2062874151       -0.7490174218
 H          6.9718870778        2.2999858331       -0.3731346285
 H          6.3833762264        1.1067388955       -1.5409394152
  48
        -73.16984876
 C          6.1015639759        1.7711539969       -0.3904616836
 C          5.9116888874        0.6603590627        0.6416315402
 C          7.1938773008       -0.1587386844        0.7913629249
 C          5.4758386661        1.2277834093        1.9919263964
 O          4.9358124518       -0.3094436910        0.1639380353
 C          3.6634142659        0.0344189372       -0.0929615625
 O          3.1910923470        1.1509684431        0.0368892622
 N          2.9883673003       -1.0529629737       -0.5105495518
 C          1.6011287228       -1.0706779821       -0.9269390815
 C          1.2853510894       -0.1398682619       -2.1039177102
 C         -0.2370917642       -0.0665103904       -2.0850256601
 C         -0.6197707717       -0.0785254184       -0.5885678982
 C          0.6255922727       -0.5916468011        0.1605987967
 N         -1.7832812391       -0.8970273736       -0.3456939509
 C         -1.8618715043       -2.2531273450       -0.4617842619
 N         -3.0372540126       -2.7461922014       -0.2127908660
 C         -3.8218379183       -1.6568819750        0.0892532714
 C         -3.0366461242       -0.4818480953        0.0046103713
 C         -3.6426113503        0.7483387760        0.2693521749
 C         -3.3082521088        2.1266114891        0.3082297115
 C         -4.4455338644        2.7968982355        0.6550037660
 N         -5.4728966663        1.9190051945        0.8345630924
 C         -5.0212331271        0.6579100626        0.6067908566
 N         -5.7719531411       -0.4452907986        0.6938188040
 C         -5.1750030152       -1.5897776195        0.4362438778
 H          3.5265837627       -1.9025141579       -0.5752729614
 H          1.3758119658       -2.1022050317       -1.2067174801
 H          1.7188241226        0.8390147741       -1.8994793135
 H          1.6755547879       -0.5123044356       -3.0481131017
 H         -0.6595554526       -0.9484067438       -2.5694147292
 H         -0.6174888692        0.8167327203       -2.5928643095
 H         -0.8755645499        0.9249756407       -0.2481523480
 H          0.3758704435       -1.3771174268        0.8714479055
 H          1.0932320562        0.2299577969        0.7013035311
 H         -1.0169012641       -2.8540092051       -0.7333783875
 H         -2.3544750692        2.5713309651        0.1060808157
 H         -4.5933243950        3.8501809212        0.7868295086
 H         -5.7812807718       -2.4803828976        0.5059114137
 H         -6.4176192831        2.1524028606        1.0894946680
 H          7.9959898830        0.4787504911        1.1472555617
 H          7.4742853633       -0.5865249216       -0.1668208823
 H          7.0367744348       -0.9668060892        1.4999722961
 H          5.1803396081        2.3358943031       -0.5098155519
 H          6.3788643875        1.3445009781       -1.3515924865
 H          6.8867387260        2.4432809624       -0.0598060097
 H          4.5530420240        1.7922202172        1.8832597691
 H          5.3117466377        0.4196206926        2.7009859237
 H          6.2486895537        1.8860848674        2.3754034297
  48
        -73.16981778
 C          4.6152776000        2.2117656775       -0.3731999264
 C          3.4816965464        1.6979473783        0.5129118609
 C          3.8846546781        1.7052680745        1.9865290140
 C          2.2138159936        2.5260849693        0.3014237780
 O          3.0915109613        0.3579371592        0.0990332002
 C          3.9411283611       -0.6699883038        0.1497650910
 O          5.0975472718       -0.6187126226        0.5465198274
 N          3.3993038618       -1.8251867610       -0.2823017290
 C          2.0721083100       -2.0402475760       -0.8265970698
 C          1.7932602079       -1.2442570694       -2.1122601475
 C          0.2736012104       -1.1688025708       -2.1608835858
 C         -0.1121423799       -0.8952946787       -0.6994232074
 C          0.9327338575       -1.6549763783        0.1422853281
 N         -1.4662000751       -1.2874391816       -0.3998413764
 C         -1.9754567429       -2.5514848704       -0.4490375823
 N         -3.2338755661       -2.6357971739       -0.1391930443
 C         -3.6182667319       -1.3440579397        0.1380113208
 C         -2.5064131441       -0.4834398414       -0.0277995294
 C         -2.6794326420        0.8839781429        0.1987991387
 C         -1.9259145483        2.0854982636        0.1606347204
 C         -2.7747979341        3.0935381237        0.5157005578
 N         -4.0166073429        2.5936890648        0.7734778919
 C         -3.9979493277        1.2476406644        0.5889014425
 N         -5.0541130740        0.4439090359        0.7532814303
 C         -4.8627067153       -0.8388343971        0.5283173679
 H          4.0346816950       -2.6074712117       -0.2566863651
 H          2.0128485591       -3.1072022812       -1.0488598582
 H          2.2144903505       -0.2453377112       -2.0140555851
 H          2.2203626718       -1.7229573297       -2.9902768974
 H         -0.1438448376       -2.1250287557       -2.4784832519
 H         -0.0899088800       -0.3928751557       -2.8312117275
 H         -0.0403503403        0.1740954370       -0.4981928736
 H          0.4922256323       -2.5410970621        0.5962918026
 H          1.3145441385       -1.0241907373        0.9412803328
 H         -1.3808028783       -3.4011005635       -0.7211118070
 H         -0.8932238513        2.1994838420       -0.0997279285
 H         -2.5758743455        4.1429999568        0.6025922193
 H         -5.7155415103       -1.4878755123        0.6594623310
 H         -4.8253759546        3.1220576486        1.0540569605
 H          4.0965055546        2.7225717124        2.2995773737
 H          4.7731178107        1.0968927295        2.1369627335
 H          3.0789232655        1.3061001853        2.5988026252
 H          4.8579530550        3.2330874541       -0.0981208545
 H          4.3168237317        2.1862690455       -1.4188096263
 H          5.5000470654        1.5925868805       -0.2456972614
 H          1.4152370037        2.1488694900        0.9349563067
 H          2.4072467586        3.5624538823        0.5565787453
 H          1.9012207653        2.4683661678       -0.7377924963
  48
        -73.16980494
 C          3.9978260974        2.3199909377       -1.3265688447
 C          4.5982098635        1.7783334465       -0.0294886486
 C          6.1236951523        1.7325645928       -0.1231770126
 C          4.1610094234        2.6123651713        1.1741231704
 O          4.2220659033        0.3850066072        0.1566056228
 C          2.9370040320        0.0079410379        0.3071908963
 O          1.9812620984        0.7624166639        0.2678720131
 N          2.9129669769       -1.3183052845        0.5329892006
 C          1.7899282617       -2.2410880730        0.6063249947
 C          1.5048677850       -2.8988472448       -0.7519022740
 C          0.6543711118       -1.8645432149       -1.4877217511
 C         -0.1606140451       -1.1429445629       -0.3970854454
 C          0.4595845361       -1.5731822672        0.9490987443
 N         -1.5708903522       -1.4402109700       -0.4457758864
 C         -2.1735468541       -2.6372655701       -0.6890227460
 N         -3.4718929262       -2.6056687376       -0.6317852967
 C         -3.7822014400       -1.3024763131       -0.3147202060
 C         -2.5831861727       -0.5624205190       -0.1850941467
 C         -2.6575993564        0.7881815567        0.1586068749
 C         -1.7888664956        1.8787347643        0.4211066988
 C         -2.5849209215        2.9472731449        0.7171291895
 N         -3.9000885993        2.5890178242        0.6547149843
 C         -3.9834500178        1.2744537928        0.3203535862
 N         -5.1256207867        0.5914527815        0.1859618044
 C         -5.0225799014       -0.6840861594       -0.1246693759
 H          3.8228056744       -1.7552849469        0.4876714032
 H          2.0608241633       -2.9824105870        1.3625879239
 H          2.4164901331       -3.1430046857       -1.2922605597
 H          0.9399548202       -3.8154749740       -0.5859470712
 H          0.0099082772       -2.3090372794       -2.2434555645
 H          1.2998534432       -1.1371893331       -1.9800744462
 H         -0.0695250588       -0.0630999511       -0.5178964228
 H         -0.1904407290       -2.3052070682        1.4292744930
 H          0.5856707434       -0.7264073921        1.6186512594
 H         -1.6191935782       -3.5270445734       -0.9119757561
 H         -0.7164654328        1.8704738342        0.4050128833
 H         -2.3009493267        3.9490414916        0.9711385674
 H         -5.9467767658       -1.2330210765       -0.2255894347
 H         -4.6892355775        3.1867925601        0.8333581397
 H          6.5122403907        2.7351695234       -0.2666028811
 H          6.4252206648        1.1083287973       -0.9594835643
 H          6.5384430668        1.3145677861        0.7896286785
 H          4.3501494554        3.3325781283       -1.4951813667
 H          2.9125050471        2.3302890343       -1.2640186994
 H          4.2959556205        1.6952001917       -2.1655028856
 H          4.5217281144        3.6297446757        1.0614871026
 H          3.0765261845        2.6287599915        1.2483353460
 H          4.5683938959        2.1889542920        2.0893192616
  48
        -73.16978209
 C          3.9253640590        1.5012826171        2.0672595868
 C          3.5101171885        1.6136370497        0.6013002374
 C          2.2522359489        2.4724749614        0.4662803664
 C          4.6432778204        2.1795572359       -0.2531414177
 O          3.0979740089        0.3147764848        0.0891063209
 C          3.9347069781       -0.7241767439        0.0510250705
 O          5.0956666780       -0.7177121928        0.4377157039
 N          3.3740194357       -1.8359710267       -0.4629619604
 C          2.0381970437       -1.9935513970       -1.0056681209
 C          1.7538237705       -1.0971752500       -2.2221433350
 C          0.2346975421       -1.0016611918       -2.2455253262
 C         -0.1304911675       -0.8376932504       -0.7625121728
 C          0.9149212778       -1.6720995314        0.0044279400
 N         -1.4857264081       -1.2364785213       -0.4772130802
 C         -2.0104105031       -2.4875685852       -0.6159632404
 N         -3.2664635095       -2.5810790658       -0.2994786373
 C         -3.6326507287       -1.3098842388        0.0785988291
 C         -2.5125857665       -0.4514289460       -0.0341859572
 C         -2.6679237692        0.8968199942        0.2963642610
 C         -1.9012321781        2.0897744689        0.3397064918
 C         -2.7347243102        3.0771846528        0.7791953087
 N         -3.9794701568        2.5725990487        1.0125548506
 C         -3.9781098950        1.2440419591        0.7276644248
 N         -5.0419515835        0.4416948686        0.8425176147
 C         -4.8672269977       -0.8223385623        0.5191600880
 H          4.0000643406       -2.6249807422       -0.5053204733
 H          1.9636282983       -3.0393234583       -1.3091770152
 H          2.1880244137       -0.1135463643       -2.0522105586
 H          2.1648881505       -1.5110248295       -3.1398689416
 H         -0.1977154803       -1.9259515265       -2.6305526409
 H         -0.1274898705       -0.1723756559       -2.8493649903
 H         -0.0431581498        0.2120321751       -0.4801098508
 H          0.4692520912       -2.5860008231        0.3936663764
 H          1.3136597905       -1.1097661366        0.8452071551
 H         -1.4293487762       -3.3212494286       -0.9577582130
 H         -0.8701208649        2.2119865019        0.0767391941
 H         -2.5228038515        4.1149448843        0.9423782322
 H         -5.7251207008       -1.4714869271        0.6105578534
 H         -4.7792342206        3.0868108918        1.3412104292
 H          1.9307056943        2.5002051907       -0.5714444142
 H          2.4620296964        3.4831096953        0.7997621347
 H          1.4534293360        2.0575613003        1.0754887238
 H          3.1183083244        1.0688271195        2.6547023946
 H          4.1565329965        2.4879886821        2.4555741734
 H          4.8049413622        0.8691778010        2.1620133409
 H          5.5212180319        1.5420202665       -0.1805659187
 H          4.3364551854        2.2367658462       -1.2950972998
 H          4.9008405512        3.1742015808        0.0961919823
  48
        -73.16975009
 C          1.9864738409        1.4843073193       -2.0376116626
 C          2.9132917859        1.6300607898       -0.8295924946
 C          4.3720148319        1.4913170725       -1.2657287099
 C          2.6761787413        2.9665000712       -0.1282001771
 O          2.5497097154        0.5169336379        0.0410673070
 C          3.2166225234        0.2818959217        1.1744017023
 O          4.0525039392        1.0259093652        1.6704989541
 N          2.8929154449       -0.8837612491        1.7660670773
 C          1.9592295762       -1.9080557185        1.3320372230
 C          2.2792197370       -2.4729091936       -0.0682115354
 C          0.9142675147       -2.7471175957       -0.6929665639
 C          0.0950980242       -1.5487250245       -0.2182214182
 C          0.4960415382       -1.4184670537        1.2598267683
 N         -1.3301145540       -1.6723235830       -0.3991468983
 C         -2.0753452998       -2.7755717059       -0.6899236574
 N         -3.3538238693       -2.5548792632       -0.7673162508
 C         -3.5012793562       -1.2119619420       -0.5080941781
 C         -2.2264044200       -0.6482179447       -0.2698682654
 C         -2.1386152102        0.7144515485        0.0165973797
 C         -1.1500634152        1.6839551613        0.3209665830
 C         -1.8028080172        2.8712458506        0.4864971729
 N         -3.1436080502        2.6997782047        0.3044602315
 C         -3.3871569525        1.3932810434        0.0195608801
 N         -4.5982121648        0.8737122672       -0.2086231795
 C         -4.6514178960       -0.4162727749       -0.4665213007
 H          3.3766275214       -1.0317892207        2.6383857262
 H          2.0396625065       -2.7013100525        2.0759890837
 H          2.8084965674       -1.7191537798       -0.6477598958
 H          2.8980488158       -3.3651561379       -0.0127656591
 H          0.5036584850       -3.6689009548       -0.2815545304
 H          0.9541955891       -2.8266371809       -1.7770622851
 H          0.4193826084       -0.6535679802       -0.7578126777
 H         -0.1478761910       -2.0561958420        1.8658159372
 H          0.4016212198       -0.3984363480        1.6241467946
 H         -1.6436808890       -3.7412513576       -0.8563336036
 H         -0.0959627685        1.5176796804        0.4146748705
 H         -1.4005839218        3.8361648297        0.7243536183
 H         -5.6302145896       -0.8342810356       -0.6480977022
 H         -3.8495817262        3.4133230292        0.3720825216
 H          4.5327123255        0.5270128179       -1.7430003620
 H          5.0322339157        1.5718771872       -0.4054774494
 H          4.6164727468        2.2796365250       -1.9702632474
 H          2.1217444835        0.5091570626       -2.4977509467
 H          2.2215514008        2.2531060005       -2.7660818136
 H          0.9474318959        1.5935195338       -1.7387951172
 H          2.9078288922        3.7772849926       -0.8113986476
 H          1.6381259069        3.0547100116        0.1836097101
 H          3.3143421460        3.0489259032        0.7481480631
  48
        -73.16972927
 C          2.7318469394        2.8884889087        0.3940690387
 C          2.9375551127        1.7057277335       -0.5509218905
 C          1.9981322078        1.8081622175       -1.7536443486
 C          4.3897152356        1.6275697520       -1.0225075084
 O          2.5600464047        0.4536982193        0.0966627881
 C          3.2318393824       -0.0043499844        1.1565614560
 O          4.0853484554        0.6174356358        1.7756659462
 N          2.8916124666       -1.2560750706        1.5187580979
 C          1.9328410379       -2.1620095734        0.9109246575
 C          2.2257111479       -2.4551199454       -0.5757662764
 C          0.8484841475       -2.5812089373       -1.2210106562
 C          0.0594546556       -1.4805633091       -0.5150718632
 C          0.4791415976       -1.6417978052        0.9546745807
 N         -1.3700477154       -1.5409080978       -0.6941016631
 C         -2.1426104824       -2.5534142306       -1.1786843002
 N         -3.4171131573       -2.2985923939       -1.1892257882
 C         -3.5322778496       -1.0286647979       -0.6729755703
 C         -2.2423735379       -0.5448266585       -0.3540085796
 C         -2.1210684301        0.7354916088        0.1868578762
 C         -1.1069205315        1.6099623449        0.6522221100
 C         -1.7310057526        2.7552042801        1.0546203109
 N         -3.0779193691        2.6465387264        0.8694113921
 C         -3.3544391164        1.4239824155        0.3436263830
 N         -4.5798184953        0.9799251701        0.0431052204
 C         -4.6643000654       -0.2351947639       -0.4569690091
 H          3.3781546769       -1.5752295960        2.3423437149
 H          2.0054387320       -3.0839818275        1.4887035361
 H          2.7633758057       -1.6141156362       -1.0089951908
 H          2.8272882628       -3.3522212388       -0.7001463816
 H          0.4236568984       -3.5568626697       -0.9861544627
 H          0.8747759324       -2.4537780754       -2.3009443315
 H          0.3962816601       -0.5050752933       -0.8791719844
 H         -0.1709261334       -2.3718554654        1.4374711629
 H          0.4091228716       -0.7084530766        1.5078873293
 H         -1.7341008261       -3.4765746258       -1.5359360616
 H         -0.0553221328        1.4094803842        0.6917081293
 H         -1.3042944446        3.6488763342        1.4653731044
 H         -5.6544509642       -0.5929486149       -0.6964170405
 H         -3.7662967028        3.3473171974        1.0864262876
 H          0.9637127572        1.8743778030       -1.4273487051
 H          2.1123471916        0.9371271773       -2.3933045624
 H          2.2403995528        2.6984142357       -2.3243656878
 H          1.6976089378        2.9355751865        0.7268031523
 H          2.9762613966        3.8099233206       -0.1246346383
 H          3.3766133550        2.7904448097        1.2639813155
 H          5.0586581986        1.5343276463       -0.1703455350
 H          4.5285927906        0.7675767848       -1.6741142220
 H          4.6424666040        2.5300706254       -1.5695242172
  48
        -73.16972651
 C          4.4128319372        1.3859750449       -1.2390662752
 C          2.9469583840        1.5594865942       -0.8410020589
 C          2.7119713053        2.9257836710       -0.1988894193
 C          2.0444730928        1.3761801703       -2.0622612851
 O          2.5509873353        0.4862747978        0.0650265903
 C          3.1914887167        0.2884671219        1.2205283618
 O          4.0236926843        1.0436504025        1.7058164703
 N          2.8440479738       -0.8508446501        1.8489620352
 C          1.9076630224       -1.8814247349        1.4358923088
 C          2.2478163285       -2.5030146512        0.0647349531
 C          0.8921482208       -2.7832638251       -0.5776931374
 C          0.0795899462       -1.5580702413       -0.1642146426
 C          0.4519901682       -1.3793039951        1.3162032995
 N         -1.3433771930       -1.6692538096       -0.3691686778
 C         -2.0990598296       -2.7715459766       -0.6352024686
 N         -3.3731044634       -2.5366384642       -0.7399068606
 C         -3.5062789620       -1.1841966772       -0.5262699388
 C         -2.2274619930       -0.6297645908       -0.2875616578
 C         -2.1249175669        0.7404236644       -0.0455699012
 C         -1.1270881103        1.7062919528        0.2395048197
 C         -1.7656108001        2.9069865494        0.3566288087
 N         -3.1063068564        2.7471443784        0.1634977849
 C         -3.3640517423        1.4353300013       -0.0817214666
 N         -4.5790407522        0.9243660303       -0.3087748020
 C         -4.6459846003       -0.3724909428       -0.5262423550
 H          3.3090167811       -0.9709989801        2.7356735550
 H          1.9650230217       -2.6462249584        2.2111337853
 H          2.7988161698       -1.7784420936       -0.5314972202
 H          2.8534932132       -3.4002192569        0.1664135459
 H          0.4609609053       -3.6839501695       -0.1413040373
 H          0.9532216939       -2.9034524768       -1.6570218612
 H          0.4269631080       -0.6873956940       -0.7288409951
 H         -0.2113036905       -1.9882009893        1.9309253569
 H          0.3617547488       -0.3460288679        1.6421805609
 H         -1.6782757520       -3.7478343396       -0.7635163186
 H         -0.0766005733        1.5293553445        0.3522768579
 H         -1.3533472924        3.8739172452        0.5675696014
 H         -5.6277495261       -0.7832806311       -0.7081126157
 H         -3.8030478288        3.4720485637        0.1972660074
 H          3.3304777643        3.0348198942        0.6885854901
 H          1.6682097181        3.0399915300        0.0841124540
 H          2.9709976833        3.7055445539       -0.9079148639
 H          4.5718794128        0.4006567235       -1.6719545595
 H          5.0555090191        1.4952418475       -0.3687648044
 H          4.6818039896        2.1411034564       -1.9705066354
 H          1.0005429371        1.5075252850       -1.7905239043
 H          2.3034918221        2.1136669612       -2.8145609756
 H          2.1787290373        0.3825953480       -2.4814219541
  48
        -73.16836806
 C          2.4460180541        2.5800300359       -0.7414363765
 C          3.4294610265        1.8298368137        0.1570733886
 C          4.8530811801        1.9885378876       -0.3749295273
 C          3.3192764332        2.3149111537        1.6016457377
 O          3.0023205028        0.4397223881        0.0651305935
 C          3.6811514382       -0.5389700632        0.6671736073
 O          4.6595362494       -0.3865393654        1.3864528103
 N          3.1948902035       -1.7683507633        0.4071354992
 C          2.0047956839       -2.1311610510       -0.3379518624
 C          1.9993369449       -1.6507964508       -1.7981230686
 C          0.5184942078       -1.6396956351       -2.1586855897
 C         -0.1336575048       -1.0378810823       -0.9086098388
 C          0.6998837539       -1.5745575927        0.2734720737
 N         -1.5385678307       -1.3353772957       -0.7691017760
 C         -2.1893178148       -2.5001654344       -1.0516603734
 N         -3.4599672184       -2.4850809542       -0.7825314073
 C         -3.7004540249       -1.2324241654       -0.2668864634
 C         -2.4878270739       -0.5042583370       -0.2419727868
 C         -2.4963234607        0.7911179465        0.2783076501
 C         -1.5895698521        1.8489040880        0.5407300556
 C         -2.3165348293        2.8645446573        1.0907018796
 N         -3.6274300923        2.5029991187        1.1887747911
 C         -3.7749833057        1.2405735769        0.7078485085
 N         -4.9308110468        0.5689272617        0.6720296775
 C         -4.8896058826       -0.6564073142        0.1928505884
 H          3.6902727647       -2.5037976093        0.8871221805
 H          1.9726121322       -3.2221836327       -0.3261841647
 H          2.4057027059       -0.6432270144       -1.8498904474
 H          2.5841843031       -2.3022693178       -2.4429218531
 H          0.1712101730       -2.6592148268       -2.3183838894
 H          0.3053230403       -1.0560754646       -3.0514727331
 H         -0.0483374996        0.0499960587       -0.9548601087
 H          0.1513250575       -2.3563269499        0.7985624295
 H          0.9203379800       -0.7817380271        0.9855730832
 H         -1.6951666885       -3.3570665884       -1.4627434546
 H         -0.5335347488        1.8534570897        0.3612653335
 H         -1.9854457877        3.8283143833        1.4224926946
 H         -5.8218120345       -1.2006398689        0.1724364747
 H         -4.3735689480        3.0651558741        1.5621140361
 H          4.9187124315        1.6057622503       -1.3909722640
 H          5.5543550745        1.4424049032        0.2508878297
 H          5.1243404281        3.0393432675       -0.3734079447
 H          2.6935690548        3.6360128450       -0.7503220205
 H          1.4321449811        2.4606626018       -0.3714038918
 H          2.4953723994        2.1944308909       -1.7558754664
 H          2.3049653924        2.1748374056        1.9694689584
 H          4.0026232425        1.7560085024        2.2367568783
 H          3.5725908368        3.3689025328        1.6527793133
  48
        -73.16414418
 C          2.6892371491        3.0924837623        0.7169646107
 C          3.7351407227        2.0088295558        0.4528368904
 C          4.5267309740        2.3219282080       -0.8158971450
 C          4.6600678247        1.8523018566        1.6587451461
 O          2.9432559111        0.8007724635        0.2652810644
 C          3.5150212731       -0.3862651976        0.0411313575
 O          4.7137788879       -0.5914147690       -0.0891701291
 N          2.6091352641       -1.3786445102       -0.0192544227
 C          1.1724281699       -1.1990217585        0.0500503767
 C          0.4799350693       -2.4570827397        0.5921535795
 C         -0.0671032617       -3.1671469586       -0.6419796952
 C         -0.5261545395       -2.0098720476       -1.5427036341
 C          0.5647340841       -0.9619886143       -1.3537890274
 N         -1.8740527277       -1.5935106875       -1.1815704997
 C         -2.8994799941       -2.4385354531       -1.5027203247
 N         -4.0601418499       -2.0881735508       -1.0505028135
 C         -3.8240874550       -0.9205462208       -0.3699067679
 C         -2.4432353143       -0.5792009794       -0.4433026351
 C         -2.0600540897        0.6292222235        0.1704431219
 C         -0.9154203833        1.4572405024        0.3484999895
 C         -1.3035596554        2.5428278701        1.0772345167
 N         -2.6273846143        2.4556775929        1.3742836419
 C         -3.1243084984        1.3151691819        0.8313631076
 N         -4.4116859592        0.9718202662        0.9253330781
 C         -4.7562511269       -0.1392340362        0.3156503747
 H          2.9678077260       -2.2850699986       -0.2801559981
 H          1.0037438217       -0.3525012911        0.7151981276
 H          1.1638194729       -3.0761612832        1.1675406600
 H         -0.3436876109       -2.1620794526        1.2425901595
 H         -0.8765845314       -3.8544538560       -0.4036280920
 H          0.7222001424       -3.7186344015       -1.1512125853
 H         -0.5877005951       -2.3229187197       -2.5897295737
 H          0.1786331083        0.0416519244       -1.4949904132
 H          1.3402224113       -1.1249609539       -2.1021240747
 H         -2.7366699820       -3.3199007609       -2.0922884443
 H          0.0805769334        1.3158123904       -0.0116786043
 H         -0.7159698062        3.3787463187        1.4006665467
 H         -5.7949829789       -0.4290965239        0.3628879787
 H         -3.1750264962        3.1230145344        1.8906201779
 H          5.2495205480        1.5333911050       -1.0113249161
 H          5.0547918808        3.2618849673       -0.6920173008
 H          3.8541188941        2.4005844591       -1.6669015558
 H          2.0986298532        2.8307611289        1.5904076993
 H          2.0251517014        3.1874875584       -0.1374574007
 H          3.1844160033        4.0417815212        0.8904660957
 H          5.3861830545        1.0637108501        1.4761473748
 H          5.1884577957        2.7837371983        1.8347788917
 H          4.0810851481        1.5977170917        2.5435741580
