57
Energy 92.6068268141026 kcal/mol Converged!
  C  -14.739825319  37.864057137  -3.892945883
  C  -14.579440696  36.348231340  -3.883589723
  C  -15.907113790  35.648304066  -4.161931051
  N  -14.059479338  35.891121144  -2.492278986
  C  -12.773689660  36.597914836  -2.048236345
  C  -12.081213637  35.611077452  -1.102172900
  C  -12.466918554  34.210748024  -1.605074357
  C  -13.740883744  34.386249066  -2.460270718
  C  -14.922976055  33.650475267  -1.811533634
  O  -15.723042771  34.305896286  -1.130395920
  N  -15.102941622  32.310442311  -2.035975138
  C  -16.158254118  31.582484162  -1.259472121
  C  -15.541115872  30.477647286  -0.388885063
  C  -14.688238751  29.551031422  -1.277182111
  C  -13.548097275  30.364203493  -1.917343392
  C  -14.174243803  31.441453318  -2.816944132
  N  -14.177483165  28.395687927  -0.500767052
  C  -12.933217841  28.264625434   0.166883801
  N  -12.773301521  27.034495840   0.691787893
  C  -13.941467505  26.320537602   0.375432933
  C  -14.838131401  27.169739400  -0.358968069
  C  -16.096669842  26.668189262  -0.747127842
  C  -17.276996409  27.142321429  -1.391817876
  C  -18.182619121  26.086080522  -1.429490306
  N  -17.615629199  24.951846210  -0.829142042
  C  -16.333501593  25.289014998  -0.391095856
  N  -15.461265632  24.444871689   0.288055904
  C  -14.294227891  24.967528530   0.666209365
  H  -13.561462011  34.038608786  -3.514012400
  H  -18.059437085  24.046901164  -0.722406568
  H  -13.806480932  36.040983095  -4.642968930
  H  -14.819216366  36.078366958  -1.767946688
  H  -12.128369635  36.805236956  -2.942281112
  H  -13.031258393  37.561036052  -1.536806585
  H  -12.428257172  35.760186279  -0.050286788
  H  -10.973472750  35.755883589  -1.126228664
  H  -11.648349230  33.783460245  -2.235771447
  H  -12.643692422  33.521321336  -0.744067849
  H  -16.703360515  32.317392480  -0.604876585
  H  -16.879361584  31.144335005  -2.001822287
  H  -14.905471478  30.927264356   0.414157834
  H  -16.361832916  29.899710242   0.104385496
  H  -15.331351501  29.120468241  -2.099729669
  H  -12.915599824  30.850012679  -1.133828330
  H  -12.892534575  29.703117042  -2.539056522
  H  -14.784690884  30.960234185  -3.634291828
  H  -13.357455006  32.036456711  -3.295690773
  H  -12.213517667  29.075843514   0.235092531
  H  -17.447096820  28.132797231  -1.768424166
  H  -19.186075956  26.065759183  -1.833980277
  H  -13.594848994  24.321746848   1.215894505
  H  -15.794454392  34.544240653  -4.247945469
  H  -16.667566571  35.878434893  -3.377646397
  H  -16.307341579  36.016914412  -5.142469754
  H  -13.757786748  38.388186859  -3.835941900
  H  -15.219772291  38.165057520  -4.860871752
  H  -15.394698574  38.220668029  -3.063907003
