57
Energy 91.30023989050085 kcal/mol Converged!
  C  -15.760071030  37.914516092  -3.254024270
  C  -15.297517324  36.498958484  -3.588879320
  C  -16.484822893  35.566151784  -3.809221555
  N  -14.423213285  35.986604386  -2.408976716
  C  -13.087188015  36.730990373  -2.297762343
  C  -12.064109808  35.726255293  -1.751098907
  C  -12.687774151  34.324403413  -1.860269146
  C  -14.072739447  34.496552064  -2.512965574
  C  -15.140238907  33.699869755  -1.746753765
  O  -15.795537304  34.288917516  -0.876478595
  N  -15.416548456  32.406471220  -2.114799564
  C  -16.407532433  31.629189029  -1.299726964
  C  -15.691102572  30.633002422  -0.376811529
  C  -14.759821492  29.737729670  -1.219491993
  C  -13.726871735  30.590670283  -1.977958133
  C  -14.484371921  31.551713345  -2.909988250
  N  -14.110169408  28.717564722  -0.359471750
  C  -12.854453344  28.756875362   0.298146152
  N  -12.587885371  27.598981736   0.935052768
  C  -13.689678847  26.758218483   0.702779253
  C  -14.656940763  27.457768919  -0.095483120
  C  -15.855384688  26.813473574  -0.455061252
  C  -17.048990709  27.122031905  -1.170317974
  C  -17.828540257  25.969985785  -1.185208672
  N  -17.175266058  24.943451928  -0.486602327
  C  -15.958682790  25.442365501  -0.016322756
  N  -15.025973580  24.745637357   0.744512490
  C  -13.921797958  25.405700917   1.099227447
  H  -14.042460841  34.211845875  -3.599817013
  H  -17.518822795  23.998261844  -0.359310774
  H  -14.643303137  36.505999645  -4.505655002
  H  -14.969459446  36.119376626  -1.503466961
  H  -12.774248749  37.095976422  -3.312491918
  H  -13.212283745  37.606289191  -1.606563919
  H  -11.816378959  35.957953680  -0.685349774
  H  -11.120080041  35.781340955  -2.348327440
  H  -12.047223374  33.656467071  -2.488056211
  H  -12.782996578  33.866946462  -0.844074770
  H  -17.027053631  32.342900401  -0.691960389
  H  -17.074733346  31.090689813  -2.026994184
  H  -15.097337269  31.183518014   0.393782409
  H  -16.456963849  30.011384065   0.151755637
  H  -15.372082543  29.170122548  -1.981515477
  H  -13.095681212  31.177616784  -1.268638074
  H  -13.056055018  29.938776419  -2.594150713
  H  -15.116185561  30.977333903  -3.647254649
  H  -13.753880334  32.166221987  -3.490439176
  H  -12.201394120  29.625951276   0.268117670
  H  -17.306747345  28.070353635  -1.604180182
  H  -18.795346435  25.814785612  -1.647280064
  H  -13.175760832  24.872975678   1.709475575
  H  -16.176688935  34.592879846  -4.255522304
  H  -17.048957686  35.377365565  -2.865132950
  H  -17.191595656  36.049688948  -4.533788470
  H  -14.906687017  38.597974718  -3.038035172
  H  -16.307373423  38.330043840  -4.139396412
  H  -16.461993575  37.919907857  -2.385772928
