42
Energy -38.6253758658191 kcal/mol Converged!
  C  -14.679523092  29.423939647  -2.952687781
  C  -14.386340931  29.872898342  -1.517042695
  C  -13.287451770  30.967167025  -1.503194357
  C  -13.794360474  32.280379282  -2.124185557
  N  -15.033140272  32.741892258  -1.432537336
  C  -16.126138993  31.727136324  -1.371002338
  C  -15.606755469  30.425259140  -0.744042595
  S  -15.504751521  34.365572932  -1.682773334
  O  -16.568059222  34.632135703  -0.703116922
  O  -14.288075822  35.174319851  -1.524809295
  C  -16.112110953  34.483052084  -3.272033608
  N  -13.891553804  28.651088369  -0.769324092
  C  -12.594200484  28.481390168  -0.215789094
  N  -12.413462755  27.253953869   0.303133290
  C  -13.616874411  26.567532333   0.087443917
  C  -14.556641926  27.426888094  -0.587399461
  C  -15.833411894  26.896948661  -0.894320998
  C  -17.050536977  27.312266293  -1.515624778
  C  -17.935981800  26.239069341  -1.486987423
  N  -17.326138380  25.142988672  -0.863796028
  C  -16.035128548  25.523049324  -0.490479277
  N  -15.129151893  24.692158875   0.157912498
  C  -13.940114871  25.222954319   0.439543209
  H  -12.986564301  31.184876150  -0.447121896
  H  -12.393204694  30.632622634  -2.083605334
  H  -13.003000351  33.067552901  -1.974433570
  H  -13.969496884  32.139264852  -3.223659782
  H  -16.941207656  32.140060037  -0.713133308
  H  -16.541670313  31.514794263  -2.391835600
  H  -16.436725250  29.684152473  -0.711183899
  H  -15.294670870  30.635246627   0.312182880
  H  -11.838031196  29.262050505  -0.212036623
  H  -17.273266976  28.272588636  -1.941739791
  H  -18.948437080  26.182743681  -1.864917914
  H  -13.199142903  24.595590092   0.955911632
  H  -17.742155067  24.231899413  -0.709096367
  H  -15.444619994  28.618422002  -2.987875530
  H  -15.052111651  30.280908542  -3.559183167
  H  -13.747191404  29.036840172  -3.428319973
  H  -16.430084634  35.534877590  -3.529770596
  H  -17.023464396  33.848230923  -3.448434542
  H  -15.364648120  34.198937600  -4.062032565
