      -----------------------------------------------------------      
     |                   =====================                   |     
     |                           x T B                           |     
     |                   =====================                   |     
     |                         S. Grimme                         |     
     |          Mulliken Center for Theoretical Chemistry        |     
     |                    University of Bonn                     |     
      -----------------------------------------------------------      

   * xtb version 6.7.1 (edcfbbe) compiled by 'conda@c0858423619e' on 2025-09-04

   xtb is free software: you can redistribute it and/or modify it under
   the terms of the GNU Lesser General Public License as published by
   the Free Software Foundation, either version 3 of the License, or
   (at your option) any later version.
   
   xtb is distributed in the hope that it will be useful,
   but WITHOUT ANY WARRANTY; without even the implied warranty of
   MERCHANTABILITY or FITNESS FOR A PARTICULAR PURPOSE.  See the
   GNU Lesser General Public License for more details.
   
   Cite this work as:
   * C. Bannwarth, E. Caldeweyher, S. Ehlert, A. Hansen, P. Pracht,
     J. Seibert, S. Spicher, S. Grimme, WIREs Comput. Mol. Sci., 2020, 11,
     e01493. DOI: 10.1002/wcms.1493
   
   for GFN2-xTB:
   * C. Bannwarth, S. Ehlert and S. Grimme., J. Chem. Theory Comput., 2019,
     15, 1652-1671. DOI: 10.1021/acs.jctc.8b01176
   for GFN1-xTB:
   * S. Grimme, C. Bannwarth, P. Shushkov, J. Chem. Theory Comput., 2017,
     13, 1989-2009. DOI: 10.1021/acs.jctc.7b00118
   for GFN0-xTB:
   * P. Pracht, E. Caldeweyher, S. Ehlert, S. Grimme, ChemRxiv, 2019, preprint.
     DOI: 10.26434/chemrxiv.8326202.v1
   for GFN-FF:
   * S. Spicher and S. Grimme, Angew. Chem. Int. Ed., 2020, 59, 15665-15673.
     DOI: 10.1002/anie.202004239
   
   for ALPB and GBSA implicit solvation:
   * S. Ehlert, M. Stahn, S. Spicher, S. Grimme, J. Chem. Theory Comput.,
     2021, 17, 4250-4261. DOI: 10.1021/acs.jctc.1c00471
   
   for ddCOSMO and CPCM-X implicit solvation:
   * M. Stahn, S. Ehlert, S. Grimme, J. Phys. Chem. A,
     2023, XX, XXXX-XXXX. DOI: 10.1021/acs.jpca.3c04382
   
   for DFT-D4:
   * E. Caldeweyher, C. Bannwarth and S. Grimme, J. Chem. Phys., 2017,
     147, 034112. DOI: 10.1063/1.4993215
   * E. Caldeweyher, S. Ehlert, A. Hansen, H. Neugebauer, S. Spicher,
     C. Bannwarth and S. Grimme, J. Chem. Phys., 2019, 150, 154122.
     DOI: 10.1063/1.5090222
   * E. Caldeweyher, J.-M. Mewes, S. Ehlert and S. Grimme, Phys. Chem. Chem. Phys.
     2020, 22, 8499-8512. DOI: 10.1039/D0CP00502A
   
   for sTDA-xTB:
   * S. Grimme and C. Bannwarth, J. Chem. Phys., 2016, 145, 054103.
     DOI: 10.1063/1.4959605
   
   in the mass-spec context:
   * V. Asgeirsson, C. Bauer and S. Grimme, Chem. Sci., 2017, 8, 4879.
     DOI: 10.1039/c7sc00601b
   * J. Koopman and S. Grimme, ACS Omega 2019, 4, 12, 15120-15133.
     DOI: 10.1021/acsomega.9b02011
   
   for metadynamics refer to:
   * S. Grimme, J. Chem. Theory Comput., 2019, 155, 2847-2862
     DOI: 10.1021/acs.jctc.9b00143
   
   for SPH calculations refer to:
   * S. Spicher and S. Grimme, J. Chem. Theory Comput., 2021, 17, 1701-1714
     DOI: 10.1021/acs.jctc.0c01306
   
   for ONIOM refer to:
   * C. Plett, A. Katbashev, S. Ehlert, S. Grimme, M. Bursch,
     Phys. Chem. Chem. Phys., 2023, 25, 17860-17868. DOI: 10.1039/D3CP02178E
   
   for DIPRO refer to:
   * J. Kohn, N. Gildemeister, S. Grimme, D. Fazzi, A. Hansen,
     J. Chem. Phys., 2023, just accepted.
   
   for PTB refer to:
   * S. Grimme, M. Mueller, A. Hansen, J. Chem. Phys., 2023, 158, 124111.
     DOI: 10.1063/5.0137838
   
   with help from (in alphabetical order)
   P. Atkinson, C. Bannwarth, F. Bohle, G. Brandenburg, E. Caldeweyher
   M. Checinski, S. Dohm, S. Ehlert, S. Ehrlich, I. Gerasimov, C. Hölzer
   A. Katbashev, J. Kohn, J. Koopman, C. Lavigne, S. Lehtola, F. März, M. Müller,
   F. Musil, H. Neugebauer, J. Pisarek, C. Plett, P. Pracht, F. Pultar,
   J. Seibert, P. Shushkov, S. Spicher, M. Stahn, M. Steiner, T. Strunk,
   J. Stückrath, T. Rose, and J. Unsleber
   
 * started run on 2026/04/18 at 21:51:43.965     
   ID    Z sym.   atoms
    1    6 C      1-4, 6, 9-13, 15, 17-21, 23, 25
    2    8 O      5, 7
    3    7 N      8, 14, 16, 22, 24
    4    1 H      26-48

           -------------------------------------------------
          |                Calculation Setup                |
           -------------------------------------------------

          program call               : xtb /home/vranova/Crest-on-PL-REX-dataset/data/01_data/batch_1_results/007-JAK1__4E4N/crest1/crest_best.xyz --opt vtight --cycles 500 --gfn2 --alpb h2o --chrg 0
          hostname                   : d018
          coordinate file            : /home/vranova/Crest-on-PL-REX-dataset/data/01_data/batch_1_results/007-JAK1__4E4N/crest1/crest_best.xyz
          omp threads                :                     1


           -------------------------------------------------
          |                 G F N 2 - x T B                 |
           -------------------------------------------------

        Reference                      10.1021/acs.jctc.8b01176
      * Hamiltonian:
        H0-scaling (s, p, d)           1.850000    2.230000    2.230000
        zeta-weighting                 0.500000
      * Dispersion:
        s8                             2.700000
        a1                             0.520000
        a2                             5.000000
        s9                             5.000000
      * Repulsion:
        kExp                           1.500000    1.000000
        rExp                           1.000000
      * Coulomb:
        alpha                          2.000000
        third order                    shell-resolved
        anisotropic                    true
        a3                             3.000000
        a5                             4.000000
        cn-shift                       1.200000
        cn-exp                         4.000000
        max-rad                        5.000000

      * Solvation model:               ALPB
        Solvent                        h2o
        Parameter file                 internal GFN2-xTB/ALPB
        Dielectric constant                8.0200E+01
        Reference state                gsolv [1 M gas/solution]
        Free energy shift                  1.0808E-03 Eh       6.7819E-01 kcal/mol
        Temperature                        2.9815E+02 K
        Density                            1.0000E+00 kg/L
        Solvent mass                       1.8000E+01 g/mol
        Interaction kernel             P16
        Born radius scaling (c1)           1.4744E+00
        Born radii integrator          GBOBC
        Born offset                        0.0000E+00 a0       0.0000E+00 AA
        H-bond correction              true
        Ion screening                  false
        Surface tension                    1.0000E-05 Eh       1.5569E+01 dyn/cm
        Grid points                               230 per atom

          ...................................................
          :                      SETUP                      :
          :.................................................:
          :  # basis functions                 123          :
          :  # atomic orbitals                 123          :
          :  # shells                           73          :
          :  # electrons                       132          :
          :  max. iterations                   250          :
          :  Hamiltonian                  GFN2-xTB          :
          :  restarted?                      false          :
          :  GBSA solvation                   true          :
          :  PC potential                    false          :
          :  electronic temp.          300.0000000     K    :
          :  accuracy                    1.0000000          :
          :  -> integral cutoff          0.2500000E+02      :
          :  -> integral neglect         0.1000000E-07      :
          :  -> SCF convergence          0.1000000E-05 Eh   :
          :  -> wf. convergence          0.1000000E-03 e    :
          :  Broyden damping             0.4000000          :
          :  net charge                          0          :
          :  unpaired electrons                  0          :
          ...................................................

 iter      E             dE          RMSdq      gap      omega  full diag
   1    -73.9904058 -0.739904E+02  0.367E+00    3.21       0.0  T
   2    -74.1532525 -0.162847E+00  0.229E+00    3.43       1.0  T
   3    -74.1637980 -0.105455E-01  0.116E+00    3.42       1.0  T
   4    -74.1659364 -0.213843E-02  0.269E-01    3.32       1.0  T
   5    -74.1676094 -0.167300E-02  0.903E-02    3.35       1.0  T
   6    -74.1677121 -0.102674E-03  0.456E-02    3.34       1.0  T
   7    -74.1677202 -0.811745E-05  0.181E-02    3.34       1.0  T
   8    -74.1677231 -0.285257E-05  0.507E-03    3.34       2.8  T
   9    -74.1677234 -0.284843E-06  0.259E-03    3.34       5.6  T
  10    -74.1677234 -0.471091E-07  0.846E-04    3.34      17.1  T
  11    -74.1677234 -0.402559E-08  0.359E-04    3.34      40.2  T

   *** convergence criteria satisfied after 11 iterations ***

         #    Occupation            Energy/Eh            Energy/eV
      -------------------------------------------------------------
         1        2.0000           -0.7377189             -20.0744
       ...           ...                  ...                  ...
        60        2.0000           -0.4169437             -11.3456
        61        2.0000           -0.4157370             -11.3128
        62        2.0000           -0.4069763             -11.0744
        63        2.0000           -0.3861007             -10.5063
        64        2.0000           -0.3796159             -10.3299
        65        2.0000           -0.3732976             -10.1579
        66        2.0000           -0.3704683             -10.0810 (HOMO)
        67                         -0.2475891              -6.7372 (LUMO)
        68                         -0.2160277              -5.8784
        69                         -0.1980440              -5.3891
        70                         -0.1797431              -4.8911
        71                         -0.1586872              -4.3181
       ...                                ...                  ...
       123                          0.7481504              20.3582
      -------------------------------------------------------------
                  HL-Gap            0.1228792 Eh            3.3437 eV
             Fermi-level           -0.3090287 Eh           -8.4091 eV

 SCC (total)                   0 d,  0 h,  0 min,  0.048 sec
 SCC setup                      ...        0 min,  0.001 sec (  2.211%)
 Dispersion                     ...        0 min,  0.001 sec (  1.096%)
 classical contributions        ...        0 min,  0.000 sec (  0.227%)
 integral evaluation            ...        0 min,  0.006 sec ( 12.034%)
 iterations                     ...        0 min,  0.023 sec ( 47.590%)
 molecular gradient             ...        0 min,  0.018 sec ( 36.459%)
 printout                       ...        0 min,  0.000 sec (  0.362%)

         :::::::::::::::::::::::::::::::::::::::::::::::::::::
         ::                     SUMMARY                     ::
         :::::::::::::::::::::::::::::::::::::::::::::::::::::
         :: total energy             -73.172727300438 Eh    ::
         :: total w/o Gsasa/hb       -73.161617870825 Eh    ::
         :: gradient norm              0.000090894126 Eh/a0 ::
         :: HOMO-LUMO gap              3.343712320569 eV    ::
         ::.................................................::
         :: SCC energy               -74.167743936482 Eh    ::
         :: -> isotropic ES            0.119225762756 Eh    ::
         :: -> anisotropic ES          0.002572669843 Eh    ::
         :: -> anisotropic XC          0.034530437766 Eh    ::
         :: -> dispersion             -0.050428942148 Eh    ::
         :: -> Gsolv                  -0.033391048765 Eh    ::
         ::    -> Gelec               -0.022281619152 Eh    ::
         ::    -> Gsasa               -0.006065440979 Eh    ::
         ::    -> Ghb                 -0.006124748332 Eh    ::
         ::    -> Gshift               0.001080759698 Eh    ::
         :: repulsion energy           0.995016636045 Eh    ::
         :: add. restraining           0.000000000000 Eh    ::
         :: total charge               0.000000000000 e     ::
         :::::::::::::::::::::::::::::::::::::::::::::::::::::

      ----------------------------------------------------------- 
     |                   =====================                   |
     |                        A N C O P T                        |
     |                   =====================                   |
     |               Approximate Normal Coordinate               |
     |                Rational Function Optimizer                |
      ----------------------------------------------------------- 
      ----------------------------------------------------------- 
     |                   =====================                   |
     |                        A N C O P T                        |
     |                   =====================                   |
     |               Approximate Normal Coordinate               |
     |                Rational Function Optimizer                |
      ----------------------------------------------------------- 

          ...................................................
          :                      SETUP                      :
          :.................................................:
          :   optimization level         verytight          :
          :   max. optcycles                   500          :
          :   ANC micro-cycles                  20          :
          :   degrees of freedom               138          :
          :.................................................:
          :   RF solver                   davidson          :
          :   write xtbopt.log                true          :
          :   linear?                        false          :
          :   energy convergence         0.1000000E-06 Eh   :
          :   grad. convergence          0.2000000E-03 Eh/α :
          :   maxmium RF displ.          1.0000000          :
          :   Hlow (freq-cutoff)         0.1000000E-01      :
          :   Hmax (freq-cutoff)         5.0000000          :
          :   S6 in model hess.         20.0000000          :
          ...................................................

generating ANC from exact Hessian ...
Using Lindh-Hessian (1995)
 Shifting diagonal of input Hessian by    9.7938633813159631E-003
 Lowest  eigenvalues of input Hessian
    0.000000    0.000000    0.000000    0.000000    0.000000    0.000000
    0.010000    0.010079    0.010166    0.010774    0.011449    0.012342
    0.013494    0.013800    0.015290    0.016109    0.016686    0.017529
 Highest eigenvalues
    2.130787    2.179223    2.180063    2.215256    2.316128    2.521257


........................................................................
.............................. CYCLE    1 ..............................
........................................................................

 iter      E             dE          RMSdq      gap      omega  full diag
   1    -74.1677234 -0.741677E+02  0.158E-04    3.34       0.0  T
   2    -74.1677234 -0.321933E-09  0.991E-05    3.34     145.6  T
   3    -74.1677234 -0.147082E-09  0.626E-05    3.34     230.4  T
     SCC iter.                  ...        0 min,  0.007 sec
     gradient                   ...        0 min,  0.018 sec
 * total energy  :   -73.1727273 Eh     change       -0.1172324E-08 Eh
   gradient norm :     0.0000899 Eh/α   predicted     0.0000000E+00 (-100.00%)
   displ. norm   :     0.0014672 α      lambda       -0.1018549E-07
   maximum displ.:     0.0007967 α      in ANC's #3, #2, #4, ...

   *** GEOMETRY OPTIMIZATION CONVERGED AFTER 1 ITERATIONS ***

------------------------------------------------------------------------
 total energy gain   :        -0.0000000 Eh       -0.0000 kcal/mol
 total RMSD          :         0.0000001 a0        0.0000 Å
 total power (kW/mol):        -0.0000031 (step)   -0.0000 (real)
------------------------------------------------------------------------

 ANCopt (total)                0 d,  0 h,  0 min,  0.065 sec
 optimizer setup                ...        0 min,  0.015 sec ( 23.384%)
 model hessian                  ...        0 min,  0.016 sec ( 25.197%)
 ANC generation                 ...        0 min,  0.001 sec (  2.245%)
 coordinate transformation      ...        0 min,  0.000 sec (  0.010%)
 single point calculation       ...        0 min,  0.032 sec ( 48.872%)
 optimization log               ...        0 min,  0.000 sec (  0.112%)
 hessian update                 ...        0 min,  0.000 sec (  0.002%)
 rational function              ...        0 min,  0.000 sec (  0.089%)

================
 final structure:
================
48
 xtb: 6.7.1 (edcfbbe)
C            6.54302432410000       -0.41988381820000        1.39293320590000
C            6.28782918460000        0.32238763880000        0.08204024520000
C            7.03913352650000        1.65365916150000        0.06131416260000
C            6.67522573080000       -0.53351920000000       -1.12298259960000
O            4.88747672410000        0.71430948570000       -0.00976615520000
C            3.90004811400000       -0.19183728140000       -0.02084580350000
O            4.03573973840000       -1.40295424240000        0.04184847110000
N            2.71242544060000        0.43194804350000       -0.10874366370000
C            1.44850774610000       -0.26779758840000       -0.17652881790000
C            0.65648948260000        0.10946239510000       -1.44365426500000
C           -0.40465015850000        1.09956017250000       -0.96935847690000
C           -0.79677763490000        0.56201616030000        0.41281399930000
C            0.53651773980000        0.10852799510000        1.01279009400000
N           -1.74776998540000       -0.52105696100000        0.28620736290000
C           -1.52074704450000       -1.86048291390000        0.18286316120000
N           -2.59459122520000       -2.57524662600000        0.02241272680000
C           -3.62840033410000       -1.66749588040000        0.00125273600000
C           -3.09954125320000       -0.36533706830000        0.15782850210000
C           -3.97539051490000        0.72153367780000        0.15115017910000
C           -3.93256307050000        2.13621600660000        0.24492398490000
C           -5.22247840760000        2.57321243980000        0.15402684940000
N           -6.06955597350000        1.51454640690000        0.00767329930000
C           -5.34333441150000        0.36597271330000       -0.00263112130000
N           -5.85758641180000       -0.86089513850000       -0.14259650940000
C           -5.00586016630000       -1.86490842580000       -0.14255703830000
H            2.71785864600000        1.43906582650000       -0.16777451320000
H            1.71312580830000       -1.32851509230000       -0.17056688240000
H            1.30844630890000        0.52639832280000       -2.20769440360000
H            0.17872364200000       -0.77980480030000       -1.85474264050000
H           -1.25866356070000        1.15326648980000       -1.64222221790000
H            0.01810424690000        2.09676783370000       -0.85908708760000
H           -1.27938443690000        1.32373783610000        1.02997442720000
H            0.40940557310000       -0.71348463660000        1.71340907650000
H            0.98312097120000        0.94137965950000        1.55398524750000
H           -0.54062077690000       -2.28976253000000        0.23642420000000
H           -3.06289017410000        2.75146476620000        0.35557858900000
H           -5.59840030210000        3.57643553650000        0.18354062670000
H           -5.42151853680000       -2.85453967190000       -0.25993910980000
H           -7.07021309620000        1.56114259800000       -0.08482230980000
H            6.72893250490000        2.26734916630000        0.90205862920000
H            6.82092978600000        2.18790711330000       -0.85884816960000
H            8.10658280200000        1.47205851320000        0.12522689660000
H            7.60167982820000       -0.63977810970000        1.48584961580000
H            5.98536475350000       -1.35320010960000        1.41119407300000
H            6.23044668450000        0.19199527310000        2.23594502970000
H            6.11703471370000       -1.46668799620000       -1.11645062920000
H            6.45688307550000       -0.00069502320000       -2.04563876490000
H            7.73639662250000       -0.75722058740000       -1.08388012670000

 Bond Distances (Angstroems)
 ---------------------------
C1-C2=1.5279         C1-H43=1.0852        C1-H44=1.0874        C1-H45=1.0876        C2-C1=1.5279         C2-C3=1.5288         
C2-C4=1.5280         C2-O5=1.4571         C3-C2=1.5288         C3-H40=1.0861        C3-H41=1.0862        C3-H42=1.0847        
C4-C2=1.5280         C4-H46=1.0874        C4-H47=1.0876        C4-H48=1.0852        O5-C2=1.4571         O5-C6=1.3402         
C6-O5=1.3402         C6-O7=1.2203         C6-N8=1.3444         O7-C6=1.2203         N8-C6=1.3444         N8-C9=1.4463         
N8-H26=1.0089        C9-N8=1.4463         C9-C10=1.5412        C9-C13=1.5453        C9-H27=1.0932        C10-C9=1.5412        
C10-C11=1.5268       C10-H28=1.0875       C10-H29=1.0900       C11-C10=1.5268       C11-C12=1.5340       C11-H30=1.0886       
C11-H31=1.0887       C12-C11=1.5340       C12-C13=1.5308       C12-N14=1.4469       C12-H32=1.0927       C13-C9=1.5453        
C13-C12=1.5308       C13-H33=1.0875       C13-H34=1.0890       N14-C12=1.4469       N14-C15=1.3625       N14-C18=1.3668       
C15-N14=1.3625       C15-N16=1.2999       C15-H35=1.0714       N16-C15=1.2999       N16-C17=1.3759       C17-N16=1.3759       
C17-C18=1.4142       C17-C25=1.3989       C18-N14=1.3668       C18-C17=1.4142       C18-C19=1.3959       C19-C18=1.3959       
C19-C20=1.4184       C19-C23=1.4217       C20-C19=1.4184       C20-C21=1.3650       C20-H36=1.0710       C21-C20=1.3650       
C21-N22=1.3637       C21-H37=1.0717       N22-C21=1.3637       N22-C23=1.3589       N22-H39=1.0060       C23-C19=1.4217       
C23-N22=1.3589       C23-N24=1.3376       N24-C23=1.3376       N24-C25=1.3166       C25-C17=1.3989       C25-N24=1.3166       
C25-H38=1.0798       H26-N8=1.0089        H27-C9=1.0932        H28-C10=1.0875       H29-C10=1.0900       H30-C11=1.0886       
H31-C11=1.0887       H32-C12=1.0927       H33-C13=1.0875       H34-C13=1.0890       H35-C15=1.0714       H36-C20=1.0710       
H37-C21=1.0717       H38-C25=1.0798       H39-N22=1.0060       H40-C3=1.0861        H41-C3=1.0862        H42-C3=1.0847        
H43-C1=1.0852        H44-C1=1.0874        H45-C1=1.0876        H46-C4=1.0874        H47-C4=1.0876        H48-C4=1.0852        
 C  H  Rav=1.0852 sigma=0.0062  Rmin=1.0710  Rmax=1.0932    21
 C  C  Rav=1.4769 sigma=0.0660  Rmin=1.3650  Rmax=1.5453    14
 N  H  Rav=1.0074 sigma=0.0014  Rmin=1.0060  Rmax=1.0089     2
 N  C  Rav=1.3654 sigma=0.0439  Rmin=1.2999  Rmax=1.4469    11
 O  C  Rav=1.3392 sigma=0.0967  Rmin=1.2203  Rmax=1.4571     3

 selected bond angles (degree)
 --------------------
H43-C1-C2=109.56               H44-C1-C2=110.23               H44-C1-H43=108.96              H45-C1-C2=110.10               
H45-C1-H43=109.15              H45-C1-H44=108.81              C3-C2-C1=110.65                C4-C2-C1=111.23                
C4-C2-C3=110.64                O5-C2-C1=110.20                O5-C2-C3=103.72                O5-C2-C4=110.16                
H40-C3-C2=109.95               H41-C3-C2=109.94               H41-C3-H40=108.69              H42-C3-C2=109.70               
H42-C3-H40=109.27              H42-C3-H41=109.27              H46-C4-C2=110.23               H47-C4-C2=110.10               
H47-C4-H46=108.81              H48-C4-C2=109.57               H48-C4-H46=108.96              H48-C4-H47=109.14              
C6-O5-C2=121.79                O7-C6-O5=126.06                N8-C6-O5=109.74                N8-C6-O7=124.20                
C9-N8-C6=123.41                H26-N8-C6=117.53               H26-N8-C9=119.01               C10-C9-N8=111.67               
C13-C9-N8=111.21               C13-C9-C10=105.66              H27-C9-N8=104.93               H27-C9-C10=111.49              
H27-C9-C13=112.02              C11-C10-C9=105.10              H28-C10-C9=111.31              H28-C10-C11=112.72             
H29-C10-C9=109.61              H29-C10-C11=109.97             H29-C10-H28=108.10             

 selected dihedral angles (degree)
 ---------------------------------
C3-C2-C1-H43=298.43           C3-C2-C1-H44=178.54           C3-C2-C1-H45= 58.48           C4-C2-C1-H43= 61.84           
C4-C2-C1-H44=301.94           C4-C2-C1-H45=181.89           O5-C2-C1-H43=184.31           O5-C2-C1-H44= 64.41           
O5-C2-C1-H45=304.36           H40-C3-C2-C1=301.70           H40-C3-C2-C4=177.96           H40-C3-C2-O5= 59.85           
H41-C3-C2-C1=182.07           H41-C3-C2-C4= 58.33           H41-C3-C2-O5=300.22           H42-C3-C2-C1= 61.89           
H42-C3-C2-C4=298.15           H42-C3-C2-O5=180.04           H46-C4-C2-C1= 58.15           H46-C4-C2-C3=181.55           
H46-C4-C2-O5=295.65           H47-C4-C2-C1=178.20           H47-C4-C2-C3=301.61           H47-C4-C2-O5= 55.71           
H48-C4-C2-C1=298.25           H48-C4-C2-C3= 61.65           H48-C4-C2-O5=175.76           C6-O5-C2-C1=298.46            
C6-O5-C2-C3=180.00            C6-O5-C2-C4= 61.56            O7-C6-O5-C2=  0.03            N8-C6-O5-C2=179.86            
C9-N8-C6-O5=178.41            C9-N8-C6-O7=358.24            H26-N8-C6-O5=  0.99           H26-N8-C6-O7=180.82           
C10-C9-N8-C6=237.39           C10-C9-N8-H26= 54.78          C13-C9-N8-C6=119.64           C13-C9-N8-H26=297.02          
H27-C9-N8-C6=358.32           H27-C9-N8-H26=175.70          C11-C10-C9-N8=258.24          C11-C10-C9-C13= 19.29         
C11-C10-C9-H27=141.21         H28-C10-C9-N8= 20.56          H28-C10-C9-C13=141.61         H28-C10-C9-H27=263.54         
H29-C10-C9-N8=140.09          H29-C10-C9-C13=261.14         H29-C10-C9-H27= 23.07         
           -------------------------------------------------
          |                Final Singlepoint                |
           -------------------------------------------------

          ...................................................
          :                      SETUP                      :
          :.................................................:
          :  # basis functions                 123          :
          :  # atomic orbitals                 123          :
          :  # shells                           73          :
          :  # electrons                       132          :
          :  max. iterations                   250          :
          :  Hamiltonian                  GFN2-xTB          :
          :  restarted?                      false          :
          :  GBSA solvation                   true          :
          :  PC potential                    false          :
          :  electronic temp.          300.0000000     K    :
          :  accuracy                    1.0000000          :
          :  -> integral cutoff          0.2500000E+02      :
          :  -> integral neglect         0.1000000E-07      :
          :  -> SCF convergence          0.1000000E-05 Eh   :
          :  -> wf. convergence          0.1000000E-03 e    :
          :  Broyden damping             0.4000000          :
          :  net charge                          0          :
          :  unpaired electrons                  0          :
          ...................................................

 iter      E             dE          RMSdq      gap      omega  full diag
   1    -74.1677234 -0.741677E+02  0.147E-05    3.34       0.0  T
   2    -74.1677234 -0.179057E-11  0.933E-06    3.34    1546.9  T
   3    -74.1677234 -0.184741E-12  0.586E-06    3.34    2463.5  T

   *** convergence criteria satisfied after 3 iterations ***

         #    Occupation            Energy/Eh            Energy/eV
      -------------------------------------------------------------
         1        2.0000           -0.7377214             -20.0744
       ...           ...                  ...                  ...
        60        2.0000           -0.4169457             -11.3457
        61        2.0000           -0.4157311             -11.3126
        62        2.0000           -0.4069780             -11.0744
        63        2.0000           -0.3860939             -10.5062
        64        2.0000           -0.3796085             -10.3297
        65        2.0000           -0.3732914             -10.1578
        66        2.0000           -0.3704614             -10.0808 (HOMO)
        67                         -0.2475824              -6.7371 (LUMO)
        68                         -0.2160201              -5.8782
        69                         -0.1980465              -5.3891
        70                         -0.1797366              -4.8909
        71                         -0.1586806              -4.3179
       ...                                ...                  ...
       123                          0.7481588              20.3584
      -------------------------------------------------------------
                  HL-Gap            0.1228790 Eh            3.3437 eV
             Fermi-level           -0.3090219 Eh           -8.4089 eV

 SCC (total)                   0 d,  0 h,  0 min,  0.030 sec
 SCC setup                      ...        0 min,  0.001 sec (  3.026%)
 Dispersion                     ...        0 min,  0.000 sec (  0.843%)
 classical contributions        ...        0 min,  0.000 sec (  0.364%)
 integral evaluation            ...        0 min,  0.005 sec ( 17.585%)
 iterations                     ...        0 min,  0.006 sec ( 19.904%)
 molecular gradient             ...        0 min,  0.017 sec ( 57.787%)
 printout                       ...        0 min,  0.000 sec (  0.458%)

         :::::::::::::::::::::::::::::::::::::::::::::::::::::
         ::                     SUMMARY                     ::
         :::::::::::::::::::::::::::::::::::::::::::::::::::::
         :: total energy             -73.172727301642 Eh    ::
         :: total w/o Gsasa/hb       -73.161617806973 Eh    ::
         :: gradient norm              0.000089793053 Eh/a0 ::
         :: HOMO-LUMO gap              3.343707615874 eV    ::
         ::.................................................::
         :: SCC energy               -74.167743937687 Eh    ::
         :: -> isotropic ES            0.119224275244 Eh    ::
         :: -> anisotropic ES          0.002572884033 Eh    ::
         :: -> anisotropic XC          0.034530255566 Eh    ::
         :: -> dispersion             -0.050428966218 Eh    ::
         :: -> Gsolv                  -0.033390860704 Eh    ::
         ::    -> Gelec               -0.022281366035 Eh    ::
         ::    -> Gsasa               -0.006065440979 Eh    ::
         ::    -> Ghb                 -0.006124813388 Eh    ::
         ::    -> Gshift               0.001080759698 Eh    ::
         :: repulsion energy           0.995016636045 Eh    ::
         :: add. restraining           0.000000000000 Eh    ::
         :: total charge              -0.000000000000 e     ::
         :::::::::::::::::::::::::::::::::::::::::::::::::::::

           -------------------------------------------------
          |                Property Printout                |
           -------------------------------------------------

    * Orbital Energies and Occupations

         #    Occupation            Energy/Eh            Energy/eV
      -------------------------------------------------------------
         1        2.0000           -0.7377214             -20.0744
       ...           ...                  ...                  ...
        54        2.0000           -0.4548130             -12.3761
        55        2.0000           -0.4501617             -12.2495
        56        2.0000           -0.4479626             -12.1897
        57        2.0000           -0.4436689             -12.0728
        58        2.0000           -0.4375157             -11.9054
        59        2.0000           -0.4321122             -11.7584
        60        2.0000           -0.4169457             -11.3457
        61        2.0000           -0.4157311             -11.3126
        62        2.0000           -0.4069780             -11.0744
        63        2.0000           -0.3860939             -10.5062
        64        2.0000           -0.3796085             -10.3297
        65        2.0000           -0.3732914             -10.1578
        66        2.0000           -0.3704614             -10.0808 (HOMO)
        67                         -0.2475824              -6.7371 (LUMO)
        68                         -0.2160201              -5.8782
        69                         -0.1980465              -5.3891
        70                         -0.1797366              -4.8909
        71                         -0.1586806              -4.3179
        72                         -0.0750616              -2.0425
        73                         -0.0446960              -1.2162
        74                         -0.0086200              -0.2346
        75                          0.0272378               0.7412
        76                          0.0342082               0.9309
        77                          0.0436318               1.1873
       ...                                ...                  ...
       123                          0.7481588              20.3584
      -------------------------------------------------------------
                  HL-Gap            0.1228790 Eh            3.3437 eV
             Fermi-level           -0.3090219 Eh           -8.4089 eV

     #   Z          covCN         q      C6AA      α(0)
     1   6 C        3.756    -0.125    22.958     6.832
     2   6 C        3.777     0.154    18.130     6.066
     3   6 C        3.758    -0.134    23.125     6.856
     4   6 C        3.756    -0.125    22.955     6.831
     5   8 O        1.707    -0.323    19.391     5.945
     6   6 C        2.636     0.408    20.121     7.338
     7   8 O        0.858    -0.557    25.084     6.715
     8   7 N        2.691    -0.207    25.499     7.500
     9   6 C        3.803     0.047    19.783     6.332
    10   6 C        3.823    -0.076    21.933     6.664
    11   6 C        3.827    -0.072    21.856     6.652
    12   6 C        3.810     0.037    19.951     6.358
    13   6 C        3.823    -0.085    22.103     6.690
    14   7 N        2.820    -0.035    21.925     6.954
    15   6 C        3.173     0.098    25.464     8.242
    16   7 N        1.882    -0.326    29.295     8.024
    17   6 C        3.203     0.034    26.665     8.412
    18   6 C        3.118     0.033    27.100     8.526
    19   6 C        3.110    -0.047    29.015     8.825
    20   6 C        3.008    -0.082    30.024     8.988
    21   6 C        3.047    -0.002    28.039     8.685
    22   7 N        2.782    -0.118    23.565     7.210
    23   6 C        3.101     0.117    25.314     8.245
    24   7 N        1.834    -0.299    28.586     7.923
    25   6 C        2.908     0.037    27.166     8.546
    26   1 H        0.860     0.229     0.968     1.542
    27   1 H        0.924     0.058     2.217     2.329
    28   1 H        0.925     0.062     2.177     2.307
    29   1 H        0.925     0.050     2.325     2.385
    30   1 H        0.925     0.055     2.255     2.348
    31   1 H        0.925     0.067     2.114     2.274
    32   1 H        0.924     0.069     2.096     2.264
    33   1 H        0.925     0.059     2.215     2.327
    34   1 H        0.925     0.076     2.025     2.225
    35   1 H        0.926     0.047     2.359     2.402
    36   1 H        0.926     0.040     2.453     2.449
    37   1 H        0.926     0.060     2.196     2.317
    38   1 H        0.926     0.036     2.498     2.471
    39   1 H        0.860     0.226     0.982     1.552
    40   1 H        0.925     0.062     2.174     2.306
    41   1 H        0.925     0.062     2.175     2.306
    42   1 H        0.925     0.066     2.128     2.281
    43   1 H        0.925     0.060     2.196     2.317
    44   1 H        0.925     0.051     2.312     2.378
    45   1 H        0.925     0.050     2.317     2.381
    46   1 H        0.925     0.050     2.314     2.379
    47   1 H        0.925     0.050     2.320     2.382
    48   1 H        0.925     0.060     2.197     2.318

 Mol. C6AA /au·bohr⁶  :      24272.273620
 Mol. C8AA /au·bohr⁸  :     560992.254261
 Mol. α(0) /au        :        237.602224


Wiberg/Mayer (AO) data.
largest (>0.10) Wiberg bond orders for each atom

 ---------------------------------------------------------------------------
     #   Z sym  total        # sym  WBO       # sym  WBO       # sym  WBO
 ---------------------------------------------------------------------------
     1   6 C    3.993 --     2 C    0.997    45 H    0.985    44 H    0.982
                            43 H    0.982
     2   6 C    3.909 --     1 C    0.997     4 C    0.997     3 C    0.995
                             5 O    0.887
     3   6 C    3.989 --     2 C    0.995    41 H    0.983    40 H    0.983
                            42 H    0.982
     4   6 C    3.993 --     2 C    0.997    47 H    0.985    46 H    0.982
                            48 H    0.982
     5   8 O    2.235 --     6 C    1.090     2 C    0.887     7 O    0.126
     6   6 C    3.940 --     7 O    1.559     8 N    1.243     5 O    1.090
     7   8 O    1.892 --     6 C    1.559     8 N    0.161     5 O    0.126
     8   7 N    3.420 --     6 C    1.243     9 C    0.984    26 H    0.917
                             7 O    0.161
     9   6 C    3.960 --     8 N    0.984    10 C    0.983    13 C    0.981
                            27 H    0.963
    10   6 C    3.993 --    11 C    1.009     9 C    0.983    29 H    0.977
                            28 H    0.975
    11   6 C    3.992 --    10 C    1.009    12 C    0.980    30 H    0.976
                            31 H    0.974
    12   6 C    3.963 --    13 C    0.994    11 C    0.980    14 N    0.969
                            32 H    0.958
    13   6 C    3.990 --    12 C    0.994     9 C    0.981    33 H    0.975
                            34 H    0.971
    14   7 N    3.621 --    15 C    1.225    18 C    1.172    12 C    0.969
                            16 N    0.112
    15   6 C    3.957 --    16 N    1.585    14 N    1.225    35 H    0.960
    16   7 N    3.005 --    15 C    1.585    17 C    1.201    14 N    0.112
    17   6 C    3.973 --    25 C    1.299    18 C    1.271    16 N    1.201
    18   6 C    3.960 --    17 C    1.271    19 C    1.262    14 N    1.172
    19   6 C    3.979 --    18 C    1.262    20 C    1.246    23 C    1.235
    20   6 C    3.974 --    21 C    1.585    19 C    1.246    36 H    0.971
    21   6 C    3.945 --    20 C    1.585    22 N    1.218    37 H    0.968
    22   7 N    3.557 --    21 C    1.218    23 C    1.204    39 H    0.921
    23   6 C    3.961 --    24 N    1.303    19 C    1.235    22 N    1.204
    24   7 N    3.038 --    25 C    1.497    23 C    1.303
    25   6 C    3.982 --    24 N    1.497    17 C    1.299    38 H    0.963
    26   1 H    0.947 --     8 N    0.917
    27   1 H    0.997 --     9 C    0.963
    28   1 H    0.996 --    10 C    0.975
    29   1 H    0.997 --    10 C    0.977
    30   1 H    0.997 --    11 C    0.976
    31   1 H    0.994 --    11 C    0.974
    32   1 H    0.995 --    12 C    0.958
    33   1 H    0.996 --    13 C    0.975
    34   1 H    0.994 --    13 C    0.971
    35   1 H    0.997 --    15 C    0.960
    36   1 H    0.998 --    20 C    0.971
    37   1 H    0.996 --    21 C    0.968
    38   1 H    0.998 --    25 C    0.963
    39   1 H    0.948 --    22 N    0.921
    40   1 H    0.996 --     3 C    0.983
    41   1 H    0.996 --     3 C    0.983
    42   1 H    0.995 --     3 C    0.982
    43   1 H    0.996 --     1 C    0.982
    44   1 H    0.997 --     1 C    0.982
    45   1 H    0.997 --     1 C    0.985
    46   1 H    0.997 --     4 C    0.982
    47   1 H    0.997 --     4 C    0.985
    48   1 H    0.996 --     4 C    0.982
 ---------------------------------------------------------------------------

Topologies differ in total number of bonds
Writing topology from bond orders to xtbtopo.mol

molecular dipole:
                 x           y           z       tot (Debye)
 q only:        0.539       3.553       0.020
   full:        0.790       3.863       0.082      10.025
molecular quadrupole (traceless):
                xx          xy          yy          xz          yz          zz
 q only:       13.693      -8.922     -10.011      -0.300      -0.139      -3.682
  q+dip:       10.105     -13.707      -8.808      -0.672       0.058      -1.297
   full:        8.814     -13.678     -10.813      -1.164      -0.317       1.999

           -------------------------------------------------
          |                Geometry Summary                 |
           -------------------------------------------------

      molecular mass/u    :      341.4082093
   center of mass at/Å    :       -0.0000000       0.0000000       0.0000000
  moments of inertia/u·Å² :        0.6986289E+03   0.6573185E+04   0.7012482E+04
rotational constants/cm⁻¹ :        0.2412959E-01   0.2564607E-02   0.2403947E-02

 * 49 selected distances

     #   Z          #   Z                                           value/Å
     1   6 C        2   6 C                                       1.5279176
     2   6 C        3   6 C                                       1.5287812
     2   6 C        4   6 C                                       1.5279833
     5   8 O        6   6 C                                       1.3402389
     6   6 C        7   8 O                                       1.2203063
     6   6 C        8   7 N                                       1.3443519
     8   7 N        9   6 C                                       1.4462804
     9   6 C       10   6 C                                       1.5411766 (max)
    10   6 C       11   6 C                                       1.5268490
    11   6 C       12   6 C                                       1.5339878
    12   6 C       13   6 C                                       1.5307841
    12   6 C       14   7 N                                       1.4468806
    14   7 N       15   6 C                                       1.3624543
    15   6 C       16   7 N                                       1.2999127
    16   7 N       17   6 C                                       1.3759436
    14   7 N       18   6 C                                       1.3667537
    17   6 C       18   6 C                                       1.4141520
    18   6 C       19   6 C                                       1.3958671
    19   6 C       20   6 C                                       1.4184337
    20   6 C       21   6 C                                       1.3649579
    21   6 C       22   7 N                                       1.3637206
    19   6 C       23   6 C                                       1.4217395
    22   7 N       23   6 C                                       1.3589429
    23   6 C       24   7 N                                       1.3376287
    17   6 C       25   6 C                                       1.3989456
    24   7 N       25   6 C                                       1.3166171
     8   7 N       26   1 H                                       1.0088610
     9   6 C       27   1 H                                       1.0932429
    10   6 C       28   1 H                                       1.0874929
    10   6 C       29   1 H                                       1.0899772
    11   6 C       30   1 H                                       1.0885629
    11   6 C       31   1 H                                       1.0887169
    12   6 C       32   1 H                                       1.0927106
    13   6 C       33   1 H                                       1.0875337
    13   6 C       34   1 H                                       1.0890311
    15   6 C       35   1 H                                       1.0713531
    20   6 C       36   1 H                                       1.0710306
    21   6 C       37   1 H                                       1.0717486
    25   6 C       38   1 H                                       1.0797781
    22   7 N       39   1 H                                       1.0060027 (min)
     3   6 C       40   1 H                                       1.0861361
     3   6 C       41   1 H                                       1.0861550
     3   6 C       42   1 H                                       1.0846713
     1   6 C       43   1 H                                       1.0852367
     1   6 C       44   1 H                                       1.0873809
     1   6 C       45   1 H                                       1.0875523
     4   6 C       46   1 H                                       1.0873933
     4   6 C       47   1 H                                       1.0875982
     4   6 C       48   1 H                                       1.0851982

 * 5 distinct bonds (by element types)

   Z      Z             #   av. dist./Å        max./Å        min./Å
   1 H    6 C          21     1.0851667     1.0932429     1.0710306
   6 C    6 C          13     1.4716597     1.5411766     1.3649579
   1 H    7 N           2     1.0074319     1.0088610     1.0060027
   6 C    7 N          11     1.3654079     1.4468806     1.2999127
   6 C    8 O           2     1.2802726     1.3402389     1.2203063


optimized geometry written to: xtbopt.xyz


           -------------------------------------------------
          | TOTAL ENERGY              -73.172727301642 Eh   |
          | GRADIENT NORM               0.000089793053 Eh/α |
          | HOMO-LUMO GAP               3.343707615874 eV   |
           -------------------------------------------------

------------------------------------------------------------------------
 * finished run on 2026/04/18 at 21:51:45.046     
------------------------------------------------------------------------
 total:
 * wall-time:     0 d,  0 h,  0 min,  1.080 sec
 *  cpu-time:     0 d,  0 h,  0 min,  0.138 sec
 * ratio c/w:     0.128 speedup
 SCF:
 * wall-time:     0 d,  0 h,  0 min,  0.048 sec
 *  cpu-time:     0 d,  0 h,  0 min,  0.048 sec
 * ratio c/w:     0.995 speedup
 ANC optimizer:
 * wall-time:     0 d,  0 h,  0 min,  0.300 sec
 *  cpu-time:     0 d,  0 h,  0 min,  0.081 sec
 * ratio c/w:     0.268 speedup

