48
 energy: -73.172727301642 gnorm: 0.000089793053 xtb: 6.7.1 (edcfbbe)
C            6.54302432410000       -0.41988381820000        1.39293320590000
C            6.28782918460000        0.32238763880000        0.08204024520000
C            7.03913352650000        1.65365916150000        0.06131416260000
C            6.67522573080000       -0.53351920000000       -1.12298259960000
O            4.88747672410000        0.71430948570000       -0.00976615520000
C            3.90004811400000       -0.19183728140000       -0.02084580350000
O            4.03573973840000       -1.40295424240000        0.04184847110000
N            2.71242544060000        0.43194804350000       -0.10874366370000
C            1.44850774610000       -0.26779758840000       -0.17652881790000
C            0.65648948260000        0.10946239510000       -1.44365426500000
C           -0.40465015850000        1.09956017250000       -0.96935847690000
C           -0.79677763490000        0.56201616030000        0.41281399930000
C            0.53651773980000        0.10852799510000        1.01279009400000
N           -1.74776998540000       -0.52105696100000        0.28620736290000
C           -1.52074704450000       -1.86048291390000        0.18286316120000
N           -2.59459122520000       -2.57524662600000        0.02241272680000
C           -3.62840033410000       -1.66749588040000        0.00125273600000
C           -3.09954125320000       -0.36533706830000        0.15782850210000
C           -3.97539051490000        0.72153367780000        0.15115017910000
C           -3.93256307050000        2.13621600660000        0.24492398490000
C           -5.22247840760000        2.57321243980000        0.15402684940000
N           -6.06955597350000        1.51454640690000        0.00767329930000
C           -5.34333441150000        0.36597271330000       -0.00263112130000
N           -5.85758641180000       -0.86089513850000       -0.14259650940000
C           -5.00586016630000       -1.86490842580000       -0.14255703830000
H            2.71785864600000        1.43906582650000       -0.16777451320000
H            1.71312580830000       -1.32851509230000       -0.17056688240000
H            1.30844630890000        0.52639832280000       -2.20769440360000
H            0.17872364200000       -0.77980480030000       -1.85474264050000
H           -1.25866356070000        1.15326648980000       -1.64222221790000
H            0.01810424690000        2.09676783370000       -0.85908708760000
H           -1.27938443690000        1.32373783610000        1.02997442720000
H            0.40940557310000       -0.71348463660000        1.71340907650000
H            0.98312097120000        0.94137965950000        1.55398524750000
H           -0.54062077690000       -2.28976253000000        0.23642420000000
H           -3.06289017410000        2.75146476620000        0.35557858900000
H           -5.59840030210000        3.57643553650000        0.18354062670000
H           -5.42151853680000       -2.85453967190000       -0.25993910980000
H           -7.07021309620000        1.56114259800000       -0.08482230980000
H            6.72893250490000        2.26734916630000        0.90205862920000
H            6.82092978600000        2.18790711330000       -0.85884816960000
H            8.10658280200000        1.47205851320000        0.12522689660000
H            7.60167982820000       -0.63977810970000        1.48584961580000
H            5.98536475350000       -1.35320010960000        1.41119407300000
H            6.23044668450000        0.19199527310000        2.23594502970000
H            6.11703471370000       -1.46668799620000       -1.11645062920000
H            6.45688307550000       -0.00069502320000       -2.04563876490000
H            7.73639662250000       -0.75722058740000       -1.08388012670000
