57
Energy 90.54863003489483 kcal/mol Converged!
  C  -14.743943343  37.869484792  -3.868733383
  C  -14.581080816  36.352548863  -3.884307579
  C  -15.903954893  35.644775318  -4.166040747
  N  -14.053553650  35.886946952  -2.499557974
  C  -12.771535989  36.601472213  -2.055157502
  C  -12.077521181  35.618795631  -1.106743907
  C  -12.452950668  34.216902800  -1.613977814
  C  -13.730726752  34.383892598  -2.466073137
  C  -14.909577446  33.649755622  -1.807237823
  O  -15.696550731  34.315408305  -1.116216693
  N  -15.096999998  32.313931509  -2.025749313
  C  -16.166349731  31.585963025  -1.265721316
  C  -15.561788746  30.471896238  -0.396768049
  C  -14.704143571  29.542740567  -1.278618564
  C  -13.565967044  30.348329943  -1.930538938
  C  -14.180586298  31.441487775  -2.818656269
  N  -14.180883558  28.397216683  -0.491155060
  C  -12.931588745  28.267246017   0.169246634
  N  -12.769242522  27.037447110   0.695595631
  C  -13.937928358  26.320771707   0.388433978
  C  -14.836272651  27.169721548  -0.344338804
  C  -16.093714421  26.667851420  -0.733334545
  C  -17.263610937  27.140435663  -1.396593293
  C  -18.169980182  26.085608409  -1.438092994
  N  -17.614346842  24.955997105  -0.818233463
  C  -16.335100373  25.291457509  -0.370511838
  N  -15.463152566  24.449847677   0.311662091
  C  -14.292019824  24.968929507   0.683511790
  H  -13.554450867  34.034066622  -3.519153268
  H  -18.062607889  24.052422894  -0.710310985
  H  -13.811316822  36.057805785  -4.651483403
  H  -14.813620297  36.066801758  -1.772769500
  H  -12.127579330  36.807551072  -2.951032698
  H  -13.037764013  37.563605103  -1.544886154
  H  -12.434998088  35.763236508  -0.057159635
  H  -10.970282062  35.769597755  -1.127051220
  H  -11.631715120  33.795605274  -2.245380993
  H  -12.625638999  33.522652331  -0.756133564
  H  -16.717371056  32.318998885  -0.614807672
  H  -16.876961268  31.156568140  -2.023974044
  H  -14.931042369  30.917409581   0.412002742
  H  -16.393577161  29.897199543   0.083629050
  H  -15.345898438  29.099884790  -2.096113342
  H  -12.919361366  30.822433575  -1.152565877
  H  -12.928052894  29.683468801  -2.567936577
  H  -14.799772183  30.980954173  -3.641520606
  H  -13.355799444  32.031604232  -3.289119137
  H  -12.210207848  29.078636516   0.231159676
  H  -17.420659484  28.129658759  -1.784195419
  H  -19.165599432  26.064467782  -1.863142769
  H  -13.589538851  24.319243448   1.228852327
  H  -15.782019111  34.541060643  -4.251126190
  H  -16.665974897  35.865910898  -3.380786702
  H  -16.308046110  36.010285475  -5.146092895
  H  -13.759831656  38.390231844  -3.803389424
  H  -15.225711097  38.188532371  -4.829120968
  H  -15.396430011  38.209842937  -3.030281868
