57
Energy 89.83532401505568 kcal/mol Converged!
  C   -4.825563836  -3.072068639   0.161790130
  C   -3.828261502  -2.107338467  -0.475710046
  C   -2.390075124  -2.453590914  -0.098382893
  N   -4.157327370  -0.673310391   0.021704757
  C   -5.591785062  -0.238202496  -0.311321388
  C   -5.519080014   1.277989160  -0.507621786
  C   -4.123909817   1.532113433  -1.095630020
  C   -3.218450159   0.407388174  -0.551549584
  C   -2.329692655   0.903684250   0.603808604
  O   -2.583204385   0.486582903   1.745604312
  N   -1.359027217   1.841654675   0.385266777
  C   -0.817568046   2.222516517  -0.951207294
  C    0.613521041   1.690570326  -1.118648320
  C    1.503480098   2.156669754   0.049981726
  C    0.912041007   1.811435498   1.429821580
  C   -0.530831505   2.319715037   1.538939606
  N    2.865347423   1.573877961  -0.081939533
  C    4.043807314   2.348502344  -0.260654432
  N    5.140619753   1.578210959  -0.371764958
  C    4.692981513   0.251634465  -0.267277034
  C    3.264035793   0.232095034  -0.082145835
  C    2.621282852  -1.018083806   0.052052819
  C    1.302451886  -1.523882707   0.256212458
  C    1.382584086  -2.913037697   0.289300192
  N    2.713886186  -3.312839256   0.117306514
  C    3.496073894  -2.165668212  -0.029402809
  N    4.873838004  -2.153863383  -0.212981235
  C    5.449509286  -0.957137407  -0.326240970
  H   -2.592455341  -0.031272578  -1.374064728
  H    3.053516514  -4.268902502   0.095073032
  H   -3.947583900  -2.107997344  -1.595216457
  H   -4.042700194  -0.658906323   1.087618291
  H   -5.929497321  -0.737717234  -1.257967481
  H   -6.270173723  -0.522289865   0.534867944
  H   -5.638969453   1.810510398   0.467448774
  H   -6.320287791   1.629046992  -1.202903606
  H   -4.158289748   1.476914963  -2.213090187
  H   -3.752692499   2.544142770  -0.806036542
  H   -1.458835343   1.829472623  -1.778735175
  H   -0.827037174   3.349253927  -1.001683873
  H    0.597775697   0.577126604  -1.186482025
  H    1.027508016   2.083633037  -2.084681739
  H    1.617866218   3.279834389  -0.017938294
  H    0.938435140   0.710428128   1.607590164
  H    1.524615432   2.301624300   2.232022387
  H   -0.557595664   3.443956653   1.515372133
  H   -0.989030964   1.957225559   2.499664159
  H    4.024049546   3.436822393  -0.296056068
  H    0.405847270  -0.949254008   0.373091691
  H    0.588202877  -3.636371064   0.423828710
  H    6.540913597  -0.918213050  -0.469326013
  H   -2.224127896  -3.549135124  -0.278353242
  H   -1.653149983  -1.905822028  -0.727987281
  H   -2.181842150  -2.256125032   0.979656777
  H   -5.865798419  -2.896519937  -0.198884836
  H   -4.549207966  -4.119675919  -0.123154587
  H   -4.810238223  -3.006807843   1.275716738
