48
Energy -59.12058665043622 kcal/mol Converged!
  C  -17.519923206  35.811562867   1.002199660
  C  -17.661146192  36.030385261  -0.496671303
  C  -19.110501232  36.136823865  -0.960192005
  C  -16.765827167  37.128722327  -1.048173701
  O  -17.284623257  34.732597397  -1.176793346
  C  -16.032050293  34.213075736  -1.080804477
  O  -15.107615060  34.705431962  -0.442910307
  N  -15.943364311  33.085942451  -1.898004505
  C  -14.829461495  32.116341729  -1.673699562
  C  -14.539494343  31.371912182  -2.999910289
  C  -14.470744556  29.874602328  -2.669963951
  C  -15.233966532  29.697384718  -1.335922066
  C  -15.194040896  31.056211240  -0.604863197
  N  -14.627049607  28.611220038  -0.525664549
  C  -13.352991106  28.632560280   0.102708667
  N  -13.066154097  27.459704226   0.698024268
  C  -14.162369182  26.618593530   0.446417096
  C  -15.143506807  27.326693024  -0.332288930
  C  -16.319188074  26.653464815  -0.722910796
  C  -17.499569503  26.922282715  -1.476604543
  C  -18.265312418  25.760167604  -1.481601093
  N  -17.609911467  24.757058338  -0.752318575
  C  -16.407796491  25.282627460  -0.276453814
  N  -15.472232086  24.591397451   0.485142628
  C  -14.373644381  25.261439276   0.834811943
  H  -16.824970375  32.684480316  -2.249708170
  H  -13.930254513  32.700652921  -1.344318105
  H  -15.345835431  31.559171437  -3.749471938
  H  -13.576791927  31.725494856  -3.435716962
  H  -13.408320851  29.551230034  -2.564826099
  H  -14.942720140  29.264212952  -3.473168375
  H  -16.301725182  29.413307787  -1.535576100
  H  -14.433107545  31.070505166   0.209483873
  H  -16.182942666  31.265987399  -0.133242235
  H  -12.706194045  29.508052766   0.087856320
  H  -17.755329958  27.846666582  -1.960238295
  H  -19.223502873  25.579223583  -1.951726177
  H  -13.618955411  24.736249131   1.439183829
  H  -17.941303577  23.811005614  -0.602076221
  H  -19.160346691  36.308087102  -2.059707149
  H  -19.608013036  36.987308930  -0.439191776
  H  -19.660027007  35.196278896  -0.722713765
  H  -16.450018775  35.645207608   1.271387507
  H  -18.109432289  34.921409137   1.321028250
  H  -17.892914783  36.705481757   1.552993784
  H  -15.705723141  36.954193095  -0.747026510
  H  -16.820079232  37.155550289  -2.160288773
  H  -17.094406792  38.116439821  -0.649490167
