      -----------------------------------------------------------      
     |                   =====================                   |     
     |                           x T B                           |     
     |                   =====================                   |     
     |                         S. Grimme                         |     
     |          Mulliken Center for Theoretical Chemistry        |     
     |                    University of Bonn                     |     
      -----------------------------------------------------------      

   * xtb version 6.7.1 (edcfbbe) compiled by 'conda@c0858423619e' on 2025-09-04

   xtb is free software: you can redistribute it and/or modify it under
   the terms of the GNU Lesser General Public License as published by
   the Free Software Foundation, either version 3 of the License, or
   (at your option) any later version.
   
   xtb is distributed in the hope that it will be useful,
   but WITHOUT ANY WARRANTY; without even the implied warranty of
   MERCHANTABILITY or FITNESS FOR A PARTICULAR PURPOSE.  See the
   GNU Lesser General Public License for more details.
   
   Cite this work as:
   * C. Bannwarth, E. Caldeweyher, S. Ehlert, A. Hansen, P. Pracht,
     J. Seibert, S. Spicher, S. Grimme, WIREs Comput. Mol. Sci., 2020, 11,
     e01493. DOI: 10.1002/wcms.1493
   
   for GFN2-xTB:
   * C. Bannwarth, S. Ehlert and S. Grimme., J. Chem. Theory Comput., 2019,
     15, 1652-1671. DOI: 10.1021/acs.jctc.8b01176
   for GFN1-xTB:
   * S. Grimme, C. Bannwarth, P. Shushkov, J. Chem. Theory Comput., 2017,
     13, 1989-2009. DOI: 10.1021/acs.jctc.7b00118
   for GFN0-xTB:
   * P. Pracht, E. Caldeweyher, S. Ehlert, S. Grimme, ChemRxiv, 2019, preprint.
     DOI: 10.26434/chemrxiv.8326202.v1
   for GFN-FF:
   * S. Spicher and S. Grimme, Angew. Chem. Int. Ed., 2020, 59, 15665-15673.
     DOI: 10.1002/anie.202004239
   
   for ALPB and GBSA implicit solvation:
   * S. Ehlert, M. Stahn, S. Spicher, S. Grimme, J. Chem. Theory Comput.,
     2021, 17, 4250-4261. DOI: 10.1021/acs.jctc.1c00471
   
   for ddCOSMO and CPCM-X implicit solvation:
   * M. Stahn, S. Ehlert, S. Grimme, J. Phys. Chem. A,
     2023, XX, XXXX-XXXX. DOI: 10.1021/acs.jpca.3c04382
   
   for DFT-D4:
   * E. Caldeweyher, C. Bannwarth and S. Grimme, J. Chem. Phys., 2017,
     147, 034112. DOI: 10.1063/1.4993215
   * E. Caldeweyher, S. Ehlert, A. Hansen, H. Neugebauer, S. Spicher,
     C. Bannwarth and S. Grimme, J. Chem. Phys., 2019, 150, 154122.
     DOI: 10.1063/1.5090222
   * E. Caldeweyher, J.-M. Mewes, S. Ehlert and S. Grimme, Phys. Chem. Chem. Phys.
     2020, 22, 8499-8512. DOI: 10.1039/D0CP00502A
   
   for sTDA-xTB:
   * S. Grimme and C. Bannwarth, J. Chem. Phys., 2016, 145, 054103.
     DOI: 10.1063/1.4959605
   
   in the mass-spec context:
   * V. Asgeirsson, C. Bauer and S. Grimme, Chem. Sci., 2017, 8, 4879.
     DOI: 10.1039/c7sc00601b
   * J. Koopman and S. Grimme, ACS Omega 2019, 4, 12, 15120-15133.
     DOI: 10.1021/acsomega.9b02011
   
   for metadynamics refer to:
   * S. Grimme, J. Chem. Theory Comput., 2019, 155, 2847-2862
     DOI: 10.1021/acs.jctc.9b00143
   
   for SPH calculations refer to:
   * S. Spicher and S. Grimme, J. Chem. Theory Comput., 2021, 17, 1701-1714
     DOI: 10.1021/acs.jctc.0c01306
   
   for ONIOM refer to:
   * C. Plett, A. Katbashev, S. Ehlert, S. Grimme, M. Bursch,
     Phys. Chem. Chem. Phys., 2023, 25, 17860-17868. DOI: 10.1039/D3CP02178E
   
   for DIPRO refer to:
   * J. Kohn, N. Gildemeister, S. Grimme, D. Fazzi, A. Hansen,
     J. Chem. Phys., 2023, just accepted.
   
   for PTB refer to:
   * S. Grimme, M. Mueller, A. Hansen, J. Chem. Phys., 2023, 158, 124111.
     DOI: 10.1063/5.0137838
   
   with help from (in alphabetical order)
   P. Atkinson, C. Bannwarth, F. Bohle, G. Brandenburg, E. Caldeweyher
   M. Checinski, S. Dohm, S. Ehlert, S. Ehrlich, I. Gerasimov, C. Hölzer
   A. Katbashev, J. Kohn, J. Koopman, C. Lavigne, S. Lehtola, F. März, M. Müller,
   F. Musil, H. Neugebauer, J. Pisarek, C. Plett, P. Pracht, F. Pultar,
   J. Seibert, P. Shushkov, S. Spicher, M. Stahn, M. Steiner, T. Strunk,
   J. Stückrath, T. Rose, and J. Unsleber
   
 * started run on 2026/04/27 at 12:57:54.180     
   ID    Z sym.   atoms
    1    6 C      1-3, 5-9, 12-16, 18, 20-24, 26, 28
    2    7 N      4, 11, 17, 19, 25, 27
    3    8 O      10
    4    1 H      29-57

           -------------------------------------------------
          |                Calculation Setup                |
           -------------------------------------------------

          program call               : xtb /home/vranova/Crest-on-PL-REX-dataset/data/01_data/batch_1_results/007-JAK1__4E5W/crest2/crest_best.xyz --opt vtight --cycles 500 --gfn2 --alpb h2o --chrg 1
          hostname                   : d049
          coordinate file            : /home/vranova/Crest-on-PL-REX-dataset/data/01_data/batch_1_results/007-JAK1__4E5W/crest2/crest_best.xyz
          omp threads                :                     1


           -------------------------------------------------
          |                 G F N 2 - x T B                 |
           -------------------------------------------------

        Reference                      10.1021/acs.jctc.8b01176
      * Hamiltonian:
        H0-scaling (s, p, d)           1.850000    2.230000    2.230000
        zeta-weighting                 0.500000
      * Dispersion:
        s8                             2.700000
        a1                             0.520000
        a2                             5.000000
        s9                             5.000000
      * Repulsion:
        kExp                           1.500000    1.000000
        rExp                           1.000000
      * Coulomb:
        alpha                          2.000000
        third order                    shell-resolved
        anisotropic                    true
        a3                             3.000000
        a5                             4.000000
        cn-shift                       1.200000
        cn-exp                         4.000000
        max-rad                        5.000000

      * Solvation model:               ALPB
        Solvent                        h2o
        Parameter file                 internal GFN2-xTB/ALPB
        Dielectric constant                8.0200E+01
        Reference state                gsolv [1 M gas/solution]
        Free energy shift                  1.0808E-03 Eh       6.7819E-01 kcal/mol
        Temperature                        2.9815E+02 K
        Density                            1.0000E+00 kg/L
        Solvent mass                       1.8000E+01 g/mol
        Interaction kernel             P16
        Born radius scaling (c1)           1.4744E+00
        Born radii integrator          GBOBC
        Born offset                        0.0000E+00 a0       0.0000E+00 AA
        H-bond correction              true
        Ion screening                  false
        Surface tension                    1.0000E-05 Eh       1.5569E+01 dyn/cm
        Grid points                               230 per atom

          ...................................................
          :                      SETUP                      :
          :.................................................:
          :  # basis functions                 141          :
          :  # atomic orbitals                 141          :
          :  # shells                           85          :
          :  # electrons                       148          :
          :  max. iterations                   250          :
          :  Hamiltonian                  GFN2-xTB          :
          :  restarted?                      false          :
          :  GBSA solvation                   true          :
          :  PC potential                    false          :
          :  electronic temp.          300.0000000     K    :
          :  accuracy                    1.0000000          :
          :  -> integral cutoff          0.2500000E+02      :
          :  -> integral neglect         0.1000000E-07      :
          :  -> SCF convergence          0.1000000E-05 Eh   :
          :  -> wf. convergence          0.1000000E-03 e    :
          :  Broyden damping             0.4000000          :
          :  net charge                          1          :
          :  unpaired electrons                  0          :
          ...................................................

 iter      E             dE          RMSdq      gap      omega  full diag
   1    -82.0499893 -0.820500E+02  0.349E+00    2.85       0.0  T
   2    -82.3028658 -0.252877E+00  0.230E+00    3.44       1.0  T
   3    -82.3175208 -0.146550E-01  0.128E+00    3.44       1.0  T
   4    -82.3173273  0.193567E-03  0.284E-01    3.29       1.0  T
   5    -82.3198465 -0.251922E-02  0.888E-02    3.32       1.0  T
   6    -82.3199845 -0.138019E-03  0.461E-02    3.31       1.0  T
   7    -82.3199953 -0.108227E-04  0.187E-02    3.31       1.0  T
   8    -82.3199989 -0.354547E-05  0.600E-03    3.31       2.2  T
   9    -82.3199993 -0.410510E-06  0.336E-03    3.31       3.9  T
  10    -82.3199994 -0.922585E-07  0.121E-03    3.31      11.0  T
  11    -82.3199994 -0.201472E-07  0.521E-04    3.31      25.4  T
  12    -82.3199994 -0.341713E-08  0.256E-04    3.31      51.7  T

   *** convergence criteria satisfied after 12 iterations ***

         #    Occupation            Energy/Eh            Energy/eV
      -------------------------------------------------------------
         1        2.0000           -0.7329602             -19.9449
       ...           ...                  ...                  ...
        68        2.0000           -0.4276920             -11.6381
        69        2.0000           -0.4182754             -11.3819
        70        2.0000           -0.4161909             -11.3251
        71        2.0000           -0.3882343             -10.5644
        72        2.0000           -0.3828011             -10.4165
        73        2.0000           -0.3768630             -10.2550
        74        2.0000           -0.3719386             -10.1210 (HOMO)
        75                         -0.2502792              -6.8104 (LUMO)
        76                         -0.2387623              -6.4971
        77                         -0.2203613              -5.9963
        78                         -0.1824754              -4.9654
        79                         -0.1623946              -4.4190
       ...                                ...                  ...
       141                          0.7419567              20.1897
      -------------------------------------------------------------
                  HL-Gap            0.1216594 Eh            3.3105 eV
             Fermi-level           -0.3111089 Eh           -8.4657 eV

 SCC (total)                   0 d,  0 h,  0 min,  0.069 sec
 SCC setup                      ...        0 min,  0.001 sec (  2.016%)
 Dispersion                     ...        0 min,  0.001 sec (  1.017%)
 classical contributions        ...        0 min,  0.000 sec (  0.220%)
 integral evaluation            ...        0 min,  0.008 sec ( 11.429%)
 iterations                     ...        0 min,  0.034 sec ( 48.402%)
 molecular gradient             ...        0 min,  0.025 sec ( 36.557%)
 printout                       ...        0 min,  0.000 sec (  0.345%)

         :::::::::::::::::::::::::::::::::::::::::::::::::::::
         ::                     SUMMARY                     ::
         :::::::::::::::::::::::::::::::::::::::::::::::::::::
         :: total energy             -81.183769845610 Eh    ::
         :: total w/o Gsasa/hb       -81.172164879661 Eh    ::
         :: gradient norm              0.000221092250 Eh/a0 ::
         :: HOMO-LUMO gap              3.310520582635 eV    ::
         ::.................................................::
         :: SCC energy               -82.318771789129 Eh    ::
         :: -> isotropic ES            0.167559182830 Eh    ::
         :: -> anisotropic ES         -0.006987705958 Eh    ::
         :: -> anisotropic XC          0.045153309056 Eh    ::
         :: -> dispersion             -0.064073355184 Eh    ::
         :: -> Gsolv                  -0.103520549780 Eh    ::
         ::    -> Gelec               -0.091915583831 Eh    ::
         ::    -> Gsasa               -0.006197243799 Eh    ::
         ::    -> Ghb                 -0.006488481848 Eh    ::
         ::    -> Gshift               0.001080759698 Eh    ::
         :: repulsion energy           1.135001943518 Eh    ::
         :: add. restraining           0.000000000000 Eh    ::
         :: total charge               1.000000000000 e     ::
         :::::::::::::::::::::::::::::::::::::::::::::::::::::

      ----------------------------------------------------------- 
     |                   =====================                   |
     |                        A N C O P T                        |
     |                   =====================                   |
     |               Approximate Normal Coordinate               |
     |                Rational Function Optimizer                |
      ----------------------------------------------------------- 
      ----------------------------------------------------------- 
     |                   =====================                   |
     |                        A N C O P T                        |
     |                   =====================                   |
     |               Approximate Normal Coordinate               |
     |                Rational Function Optimizer                |
      ----------------------------------------------------------- 

          ...................................................
          :                      SETUP                      :
          :.................................................:
          :   optimization level         verytight          :
          :   max. optcycles                   500          :
          :   ANC micro-cycles                  20          :
          :   degrees of freedom               165          :
          :.................................................:
          :   RF solver                   davidson          :
          :   write xtbopt.log                true          :
          :   linear?                        false          :
          :   energy convergence         0.1000000E-06 Eh   :
          :   grad. convergence          0.2000000E-03 Eh/α :
          :   maxmium RF displ.          1.0000000          :
          :   Hlow (freq-cutoff)         0.1000000E-01      :
          :   Hmax (freq-cutoff)         5.0000000          :
          :   S6 in model hess.         20.0000000          :
          ...................................................

generating ANC from exact Hessian ...
Using Lindh-Hessian (1995)
 Shifting diagonal of input Hessian by    9.8118362173653367E-003
 Lowest  eigenvalues of input Hessian
    0.000000    0.000000    0.000000    0.000000    0.000000    0.000000
    0.010000    0.010157    0.010424    0.010645    0.011201    0.011590
    0.012901    0.013504    0.014414    0.014595    0.015982    0.016806
 Highest eigenvalues
    2.043577    2.131461    2.178559    2.210592    2.303108    2.309943


........................................................................
.............................. CYCLE    1 ..............................
........................................................................

 iter      E             dE          RMSdq      gap      omega  full diag
   1    -82.3199994 -0.823200E+02  0.101E-04    3.31       0.0  T
   2    -82.3199994 -0.670184E-10  0.663E-05    3.31     199.7  T
   3    -82.3199994 -0.116387E-10  0.424E-05    3.31     312.2  T
     SCC iter.                  ...        0 min,  0.009 sec
     gradient                   ...        0 min,  0.025 sec
 * total energy  :   -81.1837698 Eh     change       -0.1107281E-08 Eh
   gradient norm :     0.0002205 Eh/α   predicted     0.0000000E+00 (-100.00%)
   displ. norm   :     0.0063664 α      lambda       -0.6202110E-07
   maximum displ.:     0.0029856 α      in ANC's #6, #11, #1, ...

........................................................................
.............................. CYCLE    2 ..............................
........................................................................

 iter      E             dE          RMSdq      gap      omega  full diag
   1    -82.3200246 -0.823200E+02  0.153E-03    3.31       0.0  T
   2    -82.3200246 -0.336158E-08  0.897E-04    3.31      14.8  T
   3    -82.3200246  0.159176E-08  0.257E-04    3.31      51.5  T
     SCC iter.                  ...        0 min,  0.008 sec
     gradient                   ...        0 min,  0.025 sec
 * total energy  :   -81.1837702 Eh     change       -0.3658260E-06 Eh
   gradient norm :     0.0001449 Eh/α   predicted    -0.2273912E-06 ( -37.84%)
   displ. norm   :     0.0069674 α      lambda       -0.5398701E-07
   maximum displ.:     0.0036784 α      in ANC's #6, #1, #4, ...

........................................................................
.............................. CYCLE    3 ..............................
........................................................................

 iter      E             dE          RMSdq      gap      omega  full diag
   1    -82.3200248 -0.823200E+02  0.120E-03    3.31       0.0  T
   2    -82.3200248 -0.841965E-09  0.698E-04    3.31      19.0  T
   3    -82.3200248 -0.103142E-09  0.650E-05    3.31     203.7  T
     SCC iter.                  ...        0 min,  0.008 sec
     gradient                   ...        0 min,  0.025 sec
 * total energy  :   -81.1837705 Eh     change       -0.2517582E-06 Eh
   gradient norm :     0.0001329 Eh/α   predicted    -0.1022822E-06 ( -59.37%)
   displ. norm   :     0.0177321 α      lambda       -0.3775306E-06
   maximum displ.:     0.0091863 α      in ANC's #6, #1, #4, ...

........................................................................
.............................. CYCLE    4 ..............................
........................................................................

 iter      E             dE          RMSdq      gap      omega  full diag
   1    -82.3200223 -0.823200E+02  0.281E-03    3.31       0.0  T
   2    -82.3200223 -0.370787E-08  0.162E-03    3.31       8.2  T
   3    -82.3200223 -0.755591E-09  0.148E-04    3.31      89.4  T
   4    -82.3200223 -0.599101E-09  0.695E-05    3.31     190.5  T
     SCC iter.                  ...        0 min,  0.011 sec
     gradient                   ...        0 min,  0.025 sec
 * total energy  :   -81.1837709 Eh     change       -0.3987762E-06 Eh
   gradient norm :     0.0001292 Eh/α   predicted    -0.1929540E-06 ( -51.61%)
   displ. norm   :     0.0153721 α      lambda       -0.2079081E-06
   maximum displ.:     0.0076225 α      in ANC's #1, #6, #4, ...

........................................................................
.............................. CYCLE    5 ..............................
........................................................................

 iter      E             dE          RMSdq      gap      omega  full diag
   1    -82.3200281 -0.823200E+02  0.225E-03    3.31       0.0  T
   2    -82.3200281 -0.266886E-08  0.130E-03    3.31      10.2  T
   3    -82.3200281 -0.814566E-10  0.156E-04    3.31      84.8  T
   4    -82.3200281 -0.886502E-09  0.581E-05    3.31     228.1  T
     SCC iter.                  ...        0 min,  0.011 sec
     gradient                   ...        0 min,  0.025 sec
 * total energy  :   -81.1837711 Eh     change       -0.2379356E-06 Eh
   gradient norm :     0.0001184 Eh/α   predicted    -0.1063153E-06 ( -55.32%)
   displ. norm   :     0.0158969 α      lambda       -0.1941558E-06
   maximum displ.:     0.0082235 α      in ANC's #1, #4, #6, ...

........................................................................
.............................. CYCLE    6 ..............................
........................................................................

 iter      E             dE          RMSdq      gap      omega  full diag
   1    -82.3200312 -0.823200E+02  0.221E-03    3.31       0.0  T
   2    -82.3200312 -0.226706E-08  0.128E-03    3.31      10.3  T
   3    -82.3200312 -0.392049E-09  0.111E-04    3.31     119.6  T
   4    -82.3200312 -0.354575E-09  0.506E-05    3.31     261.9  T
     SCC iter.                  ...        0 min,  0.011 sec
     gradient                   ...        0 min,  0.025 sec
 * total energy  :   -81.1837713 Eh     change       -0.2308281E-06 Eh
   gradient norm :     0.0001029 Eh/α   predicted    -0.9752131E-07 ( -57.75%)
   displ. norm   :     0.0172774 α      lambda       -0.1859355E-06
   maximum displ.:     0.0094535 α      in ANC's #1, #4, #2, ...

........................................................................
.............................. CYCLE    7 ..............................
........................................................................

 iter      E             dE          RMSdq      gap      omega  full diag
   1    -82.3200320 -0.823200E+02  0.228E-03    3.31       0.0  T
   2    -82.3200320 -0.238281E-08  0.132E-03    3.31      10.0  T
   3    -82.3200320 -0.463473E-09  0.115E-04    3.31     115.5  T
   4    -82.3200320 -0.349331E-09  0.555E-05    3.31     238.6  T
     SCC iter.                  ...        0 min,  0.011 sec
     gradient                   ...        0 min,  0.025 sec
 * total energy  :   -81.1837716 Eh     change       -0.2237522E-06 Eh
   gradient norm :     0.0000831 Eh/α   predicted    -0.9897090E-07 ( -55.77%)
   displ. norm   :     0.0147767 α      lambda       -0.1292752E-06
   maximum displ.:     0.0084759 α      in ANC's #1, #4, #2, ...

........................................................................
.............................. CYCLE    8 ..............................
........................................................................

 iter      E             dE          RMSdq      gap      omega  full diag
   1    -82.3200317 -0.823200E+02  0.185E-03    3.31       0.0  T
   2    -82.3200317 -0.150679E-08  0.107E-03    3.31      12.3  T
   3    -82.3200317  0.115179E-09  0.139E-04    3.31      95.3  T
   4    -82.3200317 -0.685077E-09  0.468E-05    3.31     282.8  T
     SCC iter.                  ...        0 min,  0.011 sec
     gradient                   ...        0 min,  0.025 sec
 * total energy  :   -81.1837717 Eh     change       -0.1465536E-06 Eh
   gradient norm :     0.0000612 Eh/α   predicted    -0.6523455E-07 ( -55.49%)
   displ. norm   :     0.0108415 α      lambda       -0.7923864E-07
   maximum displ.:     0.0064890 α      in ANC's #1, #4, #2, ...

........................................................................
.............................. CYCLE    9 ..............................
........................................................................

 iter      E             dE          RMSdq      gap      omega  full diag
   1    -82.3200327 -0.823200E+02  0.129E-03    3.31       0.0  T
   2    -82.3200327 -0.705441E-09  0.753E-04    3.31      17.6  T
   3    -82.3200327  0.131536E-09  0.105E-04    3.31     125.8  T
     SCC iter.                  ...        0 min,  0.008 sec
     gradient                   ...        0 min,  0.025 sec
 * total energy  :   -81.1837718 Eh     change       -0.9159054E-07 Eh
   gradient norm :     0.0000495 Eh/α   predicted    -0.4019845E-07 ( -56.11%)
   displ. norm   :     0.0095234 α      lambda       -0.6538574E-07
   maximum displ.:     0.0057748 α      in ANC's #1, #2, #4, ...

   *** GEOMETRY OPTIMIZATION CONVERGED AFTER 9 ITERATIONS ***

------------------------------------------------------------------------
 total energy gain   :        -0.0000019 Eh       -0.0012 kcal/mol
 total RMSD          :         0.0131525 a0        0.0070 Å
 total power (kW/mol):        -0.0005683 (step)   -0.0119 (real)
------------------------------------------------------------------------

 ANCopt (total)                0 d,  0 h,  0 min,  0.429 sec
 optimizer setup                ...        0 min,  0.000 sec (  0.029%)
 model hessian                  ...        0 min,  0.029 sec (  6.715%)
 ANC generation                 ...        0 min,  0.002 sec (  0.499%)
 coordinate transformation      ...        0 min,  0.000 sec (  0.021%)
 single point calculation       ...        0 min,  0.396 sec ( 92.391%)
 optimization log               ...        0 min,  0.001 sec (  0.174%)
 hessian update                 ...        0 min,  0.000 sec (  0.027%)
 rational function              ...        0 min,  0.000 sec (  0.086%)

================
 final structure:
================
57
 xtb: 6.7.1 (edcfbbe)
C           -4.81745754241448       -2.98996007102010        0.18392298830720
C           -3.82019973689807       -2.05008717798092       -0.48356422208810
C           -2.39856978218986       -2.43339568362621       -0.08945929633428
N           -4.10652993780135       -0.64639464947523       -0.07048954592890
C           -5.49606986784191       -0.19975501521242       -0.34172064443416
C           -5.38858442958595        1.31564733768010       -0.38427789642616
C           -4.08649156893662        1.51603406382959       -1.15452822650598
C           -3.18488620727010        0.39021504738253       -0.61753782624619
C           -2.34112321306475        0.87350585263692        0.58020703373856
O           -2.65884504978028        0.46503993985309        1.70094418517760
N           -1.35574787256481        1.73427271256926        0.36334613737990
C           -0.84398143298995        2.16358902105928       -0.92166960845269
C            0.58277794142439        1.64183845569263       -1.10676446401468
C            1.47483352851525        2.11475539666662        0.04701556820195
C            0.86134493574088        1.75780172461683        1.40580461347837
C           -0.58226390808907        2.25074464849565        1.47924341048003
N            2.80547620814935        1.56309769540612       -0.07943455351786
C            3.94089131730740        2.29632459982070       -0.25476317006341
N            5.02557418443890        1.59366142528783       -0.36429559972326
C            4.61088243470459        0.28722821474103       -0.25696443630088
C            3.20592673240513        0.25151065332015       -0.07394169023822
C            2.59037534786026       -0.99928456884887        0.05901764913108
C            1.29896424525573       -1.55717259333945        0.25857128206879
C            1.44966753515517       -2.91324235797011        0.28997387290250
N            2.75925619773011       -3.24139391868129        0.11862578446231
C            3.48597491279730       -2.10235398845338       -0.02109946824060
N            4.81071539544588       -2.07561348917070       -0.19787796974434
C            5.36570255657898       -0.88907426357470       -0.31182372909550
H           -2.55663475307403       -0.04331488111704       -1.39359844885936
H            3.14805584097459       -4.16916461158304        0.10704536013620
H           -3.93659205041611       -2.09889111973100       -1.57076069232285
H           -3.92254622240658       -0.57345705752629        0.96224824208498
H           -5.80072054973475       -0.58675319139369       -1.31512067126129
H           -6.17509857534413       -0.55758570073018        0.42725044973049
H           -5.30490650307476        1.72328487751949        0.62336337684530
H           -6.24049149763026        1.77589192423364       -0.87573860618142
H           -4.25660585668193        1.38456879216047       -2.22225727217464
H           -3.66189362099474        2.50191775071932       -0.98780526298749
H           -1.47213237388854        1.81480957431532       -1.73582364165551
H           -0.83417339922016        3.25747526662391       -0.93450463692583
H            0.58491953093598        0.55333758423064       -1.14243715624188
H            0.98383382443676        2.01046880649562       -2.05102309310367
H            1.58886863847358        3.20325507111998       -0.01480970408257
H            0.89509279661257        0.67999556832887        1.55571801299586
H            1.44143144107061        2.22104627160418        2.20428328702759
H           -0.60670452753326        3.34314777490886        1.43850502915855
H           -1.04913347645309        1.91775650104645        2.40673220289802
H            3.92429322826350        3.36797454074539       -0.29788759180958
H            0.37208781975947       -1.03806399449541        0.39017685136302
H            0.70633548518307       -3.67278865210759        0.42623288868818
H            6.43606181202054       -0.86036243404486       -0.45200191216165
H           -2.25098492918863       -3.49354958857683       -0.27017725285420
H           -1.64684554707911       -1.90134274275096       -0.66399658147458
H           -2.23044894201491       -2.24649391178300        0.96891450107480
H           -5.83480617607532       -2.81414043962857       -0.14943882398691
H           -4.56508138234515       -4.01592348897638       -0.06646260286443
H           -4.77305806565722       -2.89039855611222        1.26560880727174

 Bond Distances (Angstroems)
 ---------------------------
C1-C2=1.5243         C1-H55=1.0849        C1-H56=1.0858        C1-H57=1.0872        C2-C1=1.5243         C2-C3=1.5242         
C2-N4=1.4910         C2-H31=1.0945        C3-C2=1.5242         C3-H52=1.0855        C3-H53=1.0855        C3-H54=1.0878        
N4-C2=1.4910         N4-C5=1.4845         N4-C8=1.4911         N4-H32=1.0515        C5-N4=1.4845         C5-C6=1.5198         
C5-H33=1.0909        C5-H34=1.0865        C6-C5=1.5198         C6-C7=1.5261         C6-H35=1.0902        C6-H36=1.0859        
C7-C6=1.5261         C7-C8=1.5391         C7-H37=1.0892        C7-H38=1.0863        C8-N4=1.4911         C8-C7=1.5391         
C8-C9=1.5428         C8-H29=1.0885        C9-C8=1.5428         C9-O10=1.2344        C9-N11=1.3262        O10-C9=1.2344        
N11-C9=1.3262        N11-C12=1.4483       N11-C16=1.4527       C12-N11=1.4483       C12-C13=1.5304       C12-H39=1.0858       
C12-H40=1.0940       C13-C12=1.5304       C13-C14=1.5332       C13-H41=1.0891       C13-H42=1.0901       C14-C13=1.5332       
C14-C15=1.5330       C14-N17=1.4460       C14-H43=1.0962       C15-C14=1.5330       C15-C16=1.5272       C15-H44=1.0887       
C15-H45=1.0903       C16-N11=1.4527       C16-C15=1.5272       C16-H46=1.0934       C16-H47=1.0905       N17-C14=1.4460       
N17-C18=1.3629       N17-C21=1.3714       C18-N17=1.3629       C18-N19=1.2970       C18-H48=1.0726       N19-C18=1.2970       
N19-C20=1.3749       C20-N19=1.3749       C20-C21=1.4173       C20-C28=1.3987       C21-N17=1.3714       C21-C20=1.4173       
C21-C22=1.4004       C22-C21=1.4004       C22-C23=1.4208       C22-C26=1.4231       C23-C22=1.4208       C23-C24=1.3648       
C23-H49=1.0705       C24-C23=1.3648       C24-N25=1.3609       C24-H50=1.0715       N25-C24=1.3609       N25-C26=1.3583       
N25-H30=1.0060       C26-C22=1.4231       C26-N25=1.3583       C26-N27=1.3368       N27-C26=1.3368       N27-C28=1.3149       
C28-C20=1.3987       C28-N27=1.3149       C28-H51=1.0799       H29-C8=1.0885        H30-N25=1.0060       H31-C2=1.0945        
H32-N4=1.0515        H33-C5=1.0909        H34-C5=1.0865        H35-C6=1.0902        H36-C6=1.0859        H37-C7=1.0892        
H38-C7=1.0863        H39-C12=1.0858       H40-C12=1.0940       H41-C13=1.0891       H42-C13=1.0901       H43-C14=1.0962       
H44-C15=1.0887       H45-C15=1.0903       H46-C16=1.0934       H47-C16=1.0905       H48-C18=1.0726       H49-C23=1.0705       
H50-C24=1.0715       H51-C28=1.0799       H52-C3=1.0855        H53-C3=1.0855        H54-C3=1.0878        H55-C1=1.0849        
H56-C1=1.0858        H57-C1=1.0872        
 C  H  Rav=1.0867 sigma=0.0063  Rmin=1.0705  Rmax=1.0962    27
 C  C  Rav=1.4828 sigma=0.0624  Rmin=1.3648  Rmax=1.5428    16
 N  H  Rav=1.0288 sigma=0.0228  Rmin=1.0060  Rmax=1.0515     2
 N  C  Rav=1.3945 sigma=0.0652  Rmin=1.2970  Rmax=1.4911    15
 O  C  Rav=1.2344 sigma=0.0000  Rmin=1.2344  Rmax=1.2344     1

 selected bond angles (degree)
 --------------------
H55-C1-C2=112.27               H56-C1-C2=109.24               H56-C1-H55=107.47              H57-C1-C2=110.64               
H57-C1-H55=109.22              H57-C1-H56=107.85              C3-C2-C1=109.99                N4-C2-C1=109.48                
N4-C2-C3=110.14                H31-C2-C1=109.75               H31-C2-C3=110.17               H31-C2-N4=107.26               
H52-C3-C2=109.23               H53-C3-C2=112.69               H53-C3-H52=107.24              H54-C3-C2=110.64               
H54-C3-H52=107.98              H54-C3-H53=108.89              C5-N4-C2=114.35                C8-N4-C2=115.73                
C8-N4-C5=107.60                H32-N4-C2=107.69               H32-N4-C5=108.80               H32-N4-C8=101.77               
C6-C5-N4=103.82                H33-C5-N4=108.52               H33-C5-C6=110.39               H34-C5-N4=110.89               
H34-C5-C6=113.10               H34-C5-H33=109.89              C7-C6-C5=101.85                H35-C6-C5=110.63               
H35-C6-C7=110.60               H36-C6-C5=112.32               H36-C6-C7=112.66               H36-C6-H35=108.67              
C8-C7-C6=103.16                H37-C7-C6=110.22               H37-C7-C8=110.20               H38-C7-C6=112.04               
H38-C7-C8=112.42               H38-C7-H37=108.73              C7-C8-N4=105.93                C9-C8-N4=105.72                
C9-C8-C7=111.23                H29-C8-N4=109.96               H29-C8-C7=112.38               H29-C8-C9=111.26               
O10-C9-C8=117.42               N11-C9-C8=118.86               N11-C9-O10=123.67              

 selected dihedral angles (degree)
 ---------------------------------
C3-C2-C1-H55=185.77           C3-C2-C1-H56=304.89           C3-C2-C1-H57= 63.47           N4-C2-C1-H55= 64.62           
N4-C2-C1-H56=183.74           N4-C2-C1-H57=302.31           H31-C2-C1-H55=307.14          H31-C2-C1-H56= 66.25          
H31-C2-C1-H57=184.83          H52-C3-C2-C1= 51.45           H52-C3-C2-N4=172.21           H52-C3-C2-H31=290.34          
H53-C3-C2-C1=170.54           H53-C3-C2-N4=291.30           H53-C3-C2-H31= 49.43          H54-C3-C2-C1=292.71           
H54-C3-C2-N4= 53.47           H54-C3-C2-H31=171.60          C5-N4-C2-C1=304.33            C5-N4-C2-C3=183.27            
C5-N4-C2-H31= 63.37           C8-N4-C2-C1=178.42            C8-N4-C2-C3= 57.35            C8-N4-C2-H31=297.45           
H32-N4-C2-C1= 65.38           H32-N4-C2-C3=304.31           H32-N4-C2-H31=184.41          C6-C5-N4-C2=202.23            
C6-C5-N4-C8=332.29            C6-C5-N4-H32= 81.80           H33-C5-N4-C2=319.68           H33-C5-N4-C8= 89.74           
H33-C5-N4-H32=199.25          H34-C5-N4-C2= 80.46           H34-C5-N4-C8=210.52           H34-C5-N4-H32=320.04          
C7-C6-C5-N4= 41.11            C7-C6-C5-H33=284.98           C7-C6-C5-H34=161.39           H35-C6-C5-N4=283.52           
H35-C6-C5-H33=167.38          H35-C6-C5-H34= 43.80          H36-C6-C5-N4=161.90           H36-C6-C5-H33= 45.76          
H36-C6-C5-H34=282.17          C8-C7-C6-C5=321.37            C8-C7-C6-H35= 78.99           C8-C7-C6-H36=200.83           
H37-C7-C6-C5= 79.02           H37-C7-C6-H35=196.64          H37-C7-C6-H36=318.47          H38-C7-C6-C5=200.23           
H38-C7-C6-H35=317.85          H38-C7-C6-H36= 79.69          C7-C8-N4-C2=132.51            C7-C8-N4-C5=  3.23            
C7-C8-N4-H32=248.93           C9-C8-N4-C2=250.65            C9-C8-N4-C5=121.37            C9-C8-N4-H32=  7.07           
H29-C8-N4-C2= 10.85           H29-C8-N4-C5=241.57           H29-C8-N4-H32=127.27          N4-C8-C7-C6= 22.29            
N4-C8-C7-H37=264.63           N4-C8-C7-H38=143.18           C9-C8-C7-C6=267.89            C9-C8-C7-H37=150.22           
C9-C8-C7-H38= 28.77           H29-C8-C7-C6=142.39           H29-C8-C7-H37= 24.73          H29-C8-C7-H38=263.27          
O10-C9-C8-N4=352.42           O10-C9-C8-C7=106.96           O10-C9-C8-H29=233.07          N11-C9-C8-N4=174.88           
N11-C9-C8-C7=289.42           N11-C9-C8-H29= 55.53          
           -------------------------------------------------
          |                Final Singlepoint                |
           -------------------------------------------------

          ...................................................
          :                      SETUP                      :
          :.................................................:
          :  # basis functions                 141          :
          :  # atomic orbitals                 141          :
          :  # shells                           85          :
          :  # electrons                       148          :
          :  max. iterations                   250          :
          :  Hamiltonian                  GFN2-xTB          :
          :  restarted?                      false          :
          :  GBSA solvation                   true          :
          :  PC potential                    false          :
          :  electronic temp.          300.0000000     K    :
          :  accuracy                    1.0000000          :
          :  -> integral cutoff          0.2500000E+02      :
          :  -> integral neglect         0.1000000E-07      :
          :  -> SCF convergence          0.1000000E-05 Eh   :
          :  -> wf. convergence          0.1000000E-03 e    :
          :  Broyden damping             0.4000000          :
          :  net charge                          1          :
          :  unpaired electrons                  0          :
          ...................................................

 iter      E             dE          RMSdq      gap      omega  full diag
   1    -82.3200327 -0.823200E+02  0.321E-05    3.31       0.0  T
   2    -82.3200327 -0.414957E-11  0.182E-05    3.31     726.3  T
   3    -82.3200327 -0.468958E-12  0.109E-05    3.31    1213.8  T

   *** convergence criteria satisfied after 3 iterations ***

         #    Occupation            Energy/Eh            Energy/eV
      -------------------------------------------------------------
         1        2.0000           -0.7329575             -19.9448
       ...           ...                  ...                  ...
        68        2.0000           -0.4276897             -11.6380
        69        2.0000           -0.4182743             -11.3818
        70        2.0000           -0.4161939             -11.3252
        71        2.0000           -0.3882405             -10.5646
        72        2.0000           -0.3827970             -10.4164
        73        2.0000           -0.3768486             -10.2546
        74        2.0000           -0.3719279             -10.1207 (HOMO)
        75                         -0.2502671              -6.8101 (LUMO)
        76                         -0.2387540              -6.4968
        77                         -0.2203576              -5.9962
        78                         -0.1824695              -4.9652
        79                         -0.1623787              -4.4186
       ...                                ...                  ...
       141                          0.7419905              20.1906
      -------------------------------------------------------------
                  HL-Gap            0.1216608 Eh            3.3106 eV
             Fermi-level           -0.3110975 Eh           -8.4654 eV

 SCC (total)                   0 d,  0 h,  0 min,  0.042 sec
 SCC setup                      ...        0 min,  0.001 sec (  2.876%)
 Dispersion                     ...        0 min,  0.000 sec (  0.835%)
 classical contributions        ...        0 min,  0.000 sec (  0.360%)
 integral evaluation            ...        0 min,  0.007 sec ( 17.044%)
 iterations                     ...        0 min,  0.008 sec ( 18.999%)
 molecular gradient             ...        0 min,  0.025 sec ( 59.447%)
 printout                       ...        0 min,  0.000 sec (  0.416%)

         :::::::::::::::::::::::::::::::::::::::::::::::::::::
         ::                     SUMMARY                     ::
         :::::::::::::::::::::::::::::::::::::::::::::::::::::
         :: total energy             -81.183771794144 Eh    ::
         :: total w/o Gsasa/hb       -81.172161892511 Eh    ::
         :: gradient norm              0.000050190748 Eh/a0 ::
         :: HOMO-LUMO gap              3.310559963526 eV    ::
         ::.................................................::
         :: SCC energy               -82.318806453589 Eh    ::
         :: -> isotropic ES            0.167556859274 Eh    ::
         :: -> anisotropic ES         -0.006963504373 Eh    ::
         :: -> anisotropic XC          0.045152065781 Eh    ::
         :: -> dispersion             -0.064059120812 Eh    ::
         :: -> Gsolv                  -0.103521653181 Eh    ::
         ::    -> Gelec               -0.091911751548 Eh    ::
         ::    -> Gsasa               -0.006200016064 Eh    ::
         ::    -> Ghb                 -0.006490645267 Eh    ::
         ::    -> Gshift               0.001080759698 Eh    ::
         :: repulsion energy           1.135034659445 Eh    ::
         :: add. restraining           0.000000000000 Eh    ::
         :: total charge               1.000000000000 e     ::
         :::::::::::::::::::::::::::::::::::::::::::::::::::::

           -------------------------------------------------
          |                Property Printout                |
           -------------------------------------------------

    * Orbital Energies and Occupations

         #    Occupation            Energy/Eh            Energy/eV
      -------------------------------------------------------------
         1        2.0000           -0.7329575             -19.9448
       ...           ...                  ...                  ...
        62        2.0000           -0.4578119             -12.4577
        63        2.0000           -0.4547973             -12.3757
        64        2.0000           -0.4543027             -12.3622
        65        2.0000           -0.4510771             -12.2744
        66        2.0000           -0.4436077             -12.0712
        67        2.0000           -0.4410436             -12.0014
        68        2.0000           -0.4276897             -11.6380
        69        2.0000           -0.4182743             -11.3818
        70        2.0000           -0.4161939             -11.3252
        71        2.0000           -0.3882405             -10.5646
        72        2.0000           -0.3827970             -10.4164
        73        2.0000           -0.3768486             -10.2546
        74        2.0000           -0.3719279             -10.1207 (HOMO)
        75                         -0.2502671              -6.8101 (LUMO)
        76                         -0.2387540              -6.4968
        77                         -0.2203576              -5.9962
        78                         -0.1824695              -4.9652
        79                         -0.1623787              -4.4186
        80                         -0.0832735              -2.2660
        81                         -0.0795546              -2.1648
        82                         -0.0288300              -0.7845
        83                         -0.0224321              -0.6104
        84                         -0.0181116              -0.4928
        85                         -0.0026446              -0.0720
       ...                                ...                  ...
       141                          0.7419905              20.1906
      -------------------------------------------------------------
                  HL-Gap            0.1216608 Eh            3.3106 eV
             Fermi-level           -0.3110975 Eh           -8.4654 eV

     #   Z          covCN         q      C6AA      α(0)
     1   6 C        3.757    -0.146    23.369     6.892
     2   6 C        3.785     0.032    20.056     6.379
     3   6 C        3.756    -0.138    23.216     6.870
     4   7 N        3.595     0.023    20.846     6.781
     5   6 C        3.776    -0.035    21.229     6.565
     6   6 C        3.827    -0.079    21.978     6.671
     7   6 C        3.831    -0.081    22.018     6.676
     8   6 C        3.814    -0.006    20.681     6.473
     9   6 C        2.766     0.259    22.643     7.793
    10   8 O        0.859    -0.506    23.910     6.556
    11   7 N        2.736    -0.048    22.168     6.993
    12   6 C        3.753    -0.027    21.113     6.552
    13   6 C        3.807    -0.080    22.021     6.680
    14   6 C        3.793     0.036    19.970     6.364
    15   6 C        3.806    -0.076    21.949     6.669
    16   6 C        3.762    -0.016    20.896     6.516
    17   7 N        2.822    -0.039    22.000     6.966
    18   6 C        3.178     0.094    25.517     8.248
    19   7 N        1.879    -0.327    29.325     8.028
    20   6 C        3.217     0.035    26.545     8.380
    21   6 C        3.102     0.035    27.101     8.531
    22   6 C        3.100    -0.046    29.000     8.825
    23   6 C        3.015    -0.084    30.074     8.996
    24   6 C        3.042    -0.002    28.044     8.686
    25   7 N        2.782    -0.116    23.533     7.205
    26   6 C        3.109     0.117    25.294     8.240
    27   7 N        1.834    -0.302    28.680     7.936
    28   6 C        2.911     0.040    27.110     8.538
    29   1 H        0.925     0.110     1.700     2.039
    30   1 H        0.860     0.222     0.999     1.566
    31   1 H        0.924     0.089     1.884     2.147
    32   1 H        0.857     0.271     0.808     1.408
    33   1 H        0.924     0.104     1.751     2.069
    34   1 H        0.925     0.103     1.758     2.074
    35   1 H        0.925     0.067     2.116     2.275
    36   1 H        0.925     0.084     1.936     2.176
    37   1 H        0.925     0.087     1.912     2.162
    38   1 H        0.925     0.078     1.998     2.210
    39   1 H        0.925     0.094     1.843     2.123
    40   1 H        0.924     0.083     1.950     2.184
    41   1 H        0.925     0.072     2.060     2.244
    42   1 H        0.925     0.066     2.126     2.280
    43   1 H        0.924     0.064     2.158     2.297
    44   1 H        0.925     0.069     2.096     2.264
    45   1 H        0.924     0.056     2.245     2.343
    46   1 H        0.924     0.071     2.071     2.250
    47   1 H        0.924     0.089     1.894     2.152
    48   1 H        0.926     0.048     2.351     2.398
    49   1 H        0.926     0.052     2.294     2.369
    50   1 H        0.926     0.067     2.124     2.279
    51   1 H        0.926     0.030     2.589     2.516
    52   1 H        0.925     0.074     2.045     2.236
    53   1 H        0.925     0.060     2.198     2.318
    54   1 H        0.925     0.064     2.148     2.292
    55   1 H        0.925     0.070     2.087     2.259
    56   1 H        0.925     0.075     2.035     2.231
    57   1 H        0.925     0.066     2.127     2.281

 Mol. C6AA /au·bohr⁶  :      31325.377867
 Mol. C8AA /au·bohr⁸  :     723310.047462
 Mol. α(0) /au        :        269.450661


Wiberg/Mayer (AO) data.
largest (>0.10) Wiberg bond orders for each atom

 ---------------------------------------------------------------------------
     #   Z sym  total        # sym  WBO       # sym  WBO       # sym  WBO
 ---------------------------------------------------------------------------
     1   6 C    3.984 --     2 C    1.010    57 H    0.982    55 H    0.980
                            56 H    0.977
     2   6 C    3.938 --     3 C    1.011     1 C    1.010    31 H    0.958
                             4 N    0.925
     3   6 C    3.986 --     2 C    1.011    54 H    0.981    53 H    0.978
                            52 H    0.977
     4   7 N    3.752 --     8 C    0.945     5 C    0.941     2 C    0.925
                            32 H    0.836
     5   6 C    3.931 --     6 C    1.010    34 H    0.967    33 H    0.966
                             4 N    0.941
     6   6 C    3.988 --     5 C    1.010     7 C    1.005    35 H    0.975
                            36 H    0.969
     7   6 C    3.982 --     6 C    1.005     8 C    0.977    37 H    0.971
                            38 H    0.971
     8   6 C    3.948 --     7 C    0.977    29 H    0.945     4 N    0.945
                             9 C    0.943
     9   6 C    3.954 --    10 O    1.571    11 N    1.345     8 C    0.943
    10   8 O    1.973 --     9 C    1.571    11 N    0.193
    11   7 N    3.569 --     9 C    1.345    12 C    0.982    16 C    0.978
                            10 O    0.193
    12   6 C    3.957 --    13 C    0.996    11 N    0.982    39 H    0.962
                            40 H    0.961
    13   6 C    3.989 --    12 C    0.996    14 C    0.985    42 H    0.971
                            41 H    0.967
    14   6 C    3.959 --    15 C    0.986    13 C    0.985    17 N    0.966
                            43 H    0.960
    15   6 C    3.990 --    16 C    0.998    14 C    0.986    45 H    0.972
                            44 H    0.966
    16   6 C    3.961 --    15 C    0.998    11 N    0.978    47 H    0.964
                            46 H    0.963
    17   7 N    3.615 --    18 C    1.224    21 C    1.168    14 C    0.966
                            19 N    0.113
    18   6 C    3.957 --    19 N    1.591    17 N    1.224    48 H    0.961
    19   7 N    3.009 --    18 C    1.591    20 C    1.202    17 N    0.113
    20   6 C    3.974 --    28 C    1.297    21 C    1.272    19 N    1.202
    21   6 C    3.960 --    20 C    1.272    22 C    1.259    17 N    1.168
    22   6 C    3.976 --    21 C    1.259    23 C    1.244    26 C    1.235
    23   6 C    3.969 --    24 C    1.579    22 C    1.244    49 H    0.961
    24   6 C    3.941 --    23 C    1.579    25 N    1.220    50 H    0.967
    25   7 N    3.562 --    24 C    1.220    26 C    1.207    30 H    0.922
    26   6 C    3.960 --    27 N    1.301    22 C    1.235    25 N    1.207
    27   7 N    3.039 --    28 C    1.500    26 C    1.301
    28   6 C    3.983 --    27 N    1.500    20 C    1.297    51 H    0.963
    29   1 H    0.988 --     8 C    0.945
    30   1 H    0.950 --    25 N    0.922
    31   1 H    0.992 --     2 C    0.958
    32   1 H    0.927 --     4 N    0.836
    33   1 H    0.989 --     5 C    0.966
    34   1 H    0.989 --     5 C    0.967
    35   1 H    0.995 --     6 C    0.975
    36   1 H    0.992 --     6 C    0.969
    37   1 H    0.992 --     7 C    0.971
    38   1 H    0.994 --     7 C    0.971
    39   1 H    0.991 --    12 C    0.962
    40   1 H    0.993 --    12 C    0.961
    41   1 H    0.995 --    13 C    0.967
    42   1 H    0.995 --    13 C    0.971
    43   1 H    0.995 --    14 C    0.960
    44   1 H    0.995 --    15 C    0.966
    45   1 H    0.996 --    15 C    0.972
    46   1 H    0.995 --    16 C    0.963
    47   1 H    0.992 --    16 C    0.964
    48   1 H    0.997 --    18 C    0.961
    49   1 H    0.997 --    23 C    0.961
    50   1 H    0.995 --    24 C    0.967
    51   1 H    0.998 --    28 C    0.963
    52   1 H    0.994 --     3 C    0.977
    53   1 H    0.996 --     3 C    0.978
    54   1 H    0.996 --     3 C    0.981
    55   1 H    0.995 --     1 C    0.980
    56   1 H    0.994 --     1 C    0.977
    57   1 H    0.996 --     1 C    0.982
 ---------------------------------------------------------------------------

Topologies differ in total number of bonds
Writing topology from bond orders to xtbtopo.mol

molecular dipole:
                 x           y           z       tot (Debye)
 q only:       -8.920      -0.238      -1.447
   full:       -8.946      -0.104      -1.350      22.997
molecular quadrupole (traceless):
                xx          xy          yy          xz          yz          zz
 q only:       19.256       6.138       9.567      19.087      -2.631     -28.823
  q+dip:       10.443       7.546      16.243      19.588      -1.601     -26.687
   full:       10.548       7.187      14.388      19.878      -1.824     -24.936

           -------------------------------------------------
          |                Geometry Summary                 |
           -------------------------------------------------

      molecular mass/u    :      381.4953598
   center of mass at/Å    :        0.0002787      -0.0002377       0.0000146
  moments of inertia/u·Å² :        0.1500202E+04   0.4711902E+04   0.5802987E+04
rotational constants/cm⁻¹ :        0.1123691E-01   0.3577670E-02   0.2904992E-02

 * 60 selected distances

     #   Z          #   Z                                           value/Å
     1   6 C        2   6 C                                       1.5242781
     2   6 C        3   6 C                                       1.5242297
     2   6 C        4   7 N                                       1.4909624
     4   7 N        5   6 C                                       1.4845454
     5   6 C        6   6 C                                       1.5198056
     6   6 C        7   6 C                                       1.5260690
     4   7 N        8   6 C                                       1.4910564
     7   6 C        8   6 C                                       1.5390646 (max)
     9   6 C       10   8 O                                       1.2344406
     9   6 C       11   7 N                                       1.3262402
    11   7 N       12   6 C                                       1.4482690
    12   6 C       13   6 C                                       1.5304008
    13   6 C       14   6 C                                       1.5331740
    14   6 C       15   6 C                                       1.5330011
    11   7 N       16   6 C                                       1.4526692
    15   6 C       16   6 C                                       1.5272174
    14   6 C       17   7 N                                       1.4460035
    17   7 N       18   6 C                                       1.3629122
    18   6 C       19   7 N                                       1.2970236
    19   7 N       20   6 C                                       1.3748663
    17   7 N       21   6 C                                       1.3713686
    20   6 C       21   6 C                                       1.4172770
    21   6 C       22   6 C                                       1.4003824
    22   6 C       23   6 C                                       1.4208461
    23   6 C       24   6 C                                       1.3647795
    24   6 C       25   7 N                                       1.3609065
    22   6 C       26   6 C                                       1.4231233
    25   7 N       26   6 C                                       1.3583282
    26   6 C       27   7 N                                       1.3367511
    20   6 C       28   6 C                                       1.3987319
    27   7 N       28   6 C                                       1.3148650
     8   6 C       29   1 H                                       1.0885396
    25   7 N       30   1 H                                       1.0060109 (min)
     2   6 C       31   1 H                                       1.0944978
     4   7 N       32   1 H                                       1.0515310
     5   6 C       33   1 H                                       1.0909113
     5   6 C       34   1 H                                       1.0864803
     6   6 C       35   1 H                                       1.0901888
     6   6 C       36   1 H                                       1.0858658
     7   6 C       37   1 H                                       1.0891591
     7   6 C       38   1 H                                       1.0862996
    12   6 C       39   1 H                                       1.0858488
    12   6 C       40   1 H                                       1.0940056
    13   6 C       41   1 H                                       1.0890875
    13   6 C       42   1 H                                       1.0901187
    14   6 C       43   1 H                                       1.0962017
    15   6 C       44   1 H                                       1.0887053
    15   6 C       45   1 H                                       1.0902588
    16   6 C       46   1 H                                       1.0934358
    16   6 C       47   1 H                                       1.0904513
    18   6 C       48   1 H                                       1.0726458
    23   6 C       49   1 H                                       1.0704643
    24   6 C       50   1 H                                       1.0714569
    28   6 C       51   1 H                                       1.0798812
     3   6 C       52   1 H                                       1.0855260
     3   6 C       53   1 H                                       1.0854782
     3   6 C       54   1 H                                       1.0878199
     1   6 C       55   1 H                                       1.0849153
     1   6 C       56   1 H                                       1.0858121
     1   6 C       57   1 H                                       1.0871652

 * 5 distinct bonds (by element types)

   Z      Z             #   av. dist./Å        max./Å        min./Å
   1 H    6 C          27     1.0867119     1.0962017     1.0704643
   6 C    6 C          15     1.4788254     1.5390646     1.3647795
   1 H    7 N           2     1.0287709     1.0515310     1.0060109
   6 C    7 N          15     1.3944512     1.4910564     1.2970236
   6 C    8 O           1     1.2344406     1.2344406     1.2344406


optimized geometry written to: xtbopt.xyz


           -------------------------------------------------
          | TOTAL ENERGY              -81.183771794144 Eh   |
          | GRADIENT NORM               0.000050190748 Eh/α |
          | HOMO-LUMO GAP               3.310559963526 eV   |
           -------------------------------------------------

------------------------------------------------------------------------
 * finished run on 2026/04/27 at 12:57:54.763     
------------------------------------------------------------------------
 total:
 * wall-time:     0 d,  0 h,  0 min,  0.583 sec
 *  cpu-time:     0 d,  0 h,  0 min,  0.551 sec
 * ratio c/w:     0.945 speedup
 SCF:
 * wall-time:     0 d,  0 h,  0 min,  0.070 sec
 *  cpu-time:     0 d,  0 h,  0 min,  0.069 sec
 * ratio c/w:     0.995 speedup
 ANC optimizer:
 * wall-time:     0 d,  0 h,  0 min,  0.473 sec
 *  cpu-time:     0 d,  0 h,  0 min,  0.470 sec
 * ratio c/w:     0.993 speedup

