57
 energy: -81.183771794144 gnorm: 0.000050190748 xtb: 6.7.1 (edcfbbe)
C           -4.81745754241448       -2.98996007102010        0.18392298830720
C           -3.82019973689807       -2.05008717798092       -0.48356422208810
C           -2.39856978218986       -2.43339568362621       -0.08945929633428
N           -4.10652993780135       -0.64639464947523       -0.07048954592890
C           -5.49606986784191       -0.19975501521242       -0.34172064443416
C           -5.38858442958595        1.31564733768010       -0.38427789642616
C           -4.08649156893662        1.51603406382959       -1.15452822650598
C           -3.18488620727010        0.39021504738253       -0.61753782624619
C           -2.34112321306475        0.87350585263692        0.58020703373856
O           -2.65884504978028        0.46503993985309        1.70094418517760
N           -1.35574787256481        1.73427271256926        0.36334613737990
C           -0.84398143298995        2.16358902105928       -0.92166960845269
C            0.58277794142439        1.64183845569263       -1.10676446401468
C            1.47483352851525        2.11475539666662        0.04701556820195
C            0.86134493574088        1.75780172461683        1.40580461347837
C           -0.58226390808907        2.25074464849565        1.47924341048003
N            2.80547620814935        1.56309769540612       -0.07943455351786
C            3.94089131730740        2.29632459982070       -0.25476317006341
N            5.02557418443890        1.59366142528783       -0.36429559972326
C            4.61088243470459        0.28722821474103       -0.25696443630088
C            3.20592673240513        0.25151065332015       -0.07394169023822
C            2.59037534786026       -0.99928456884887        0.05901764913108
C            1.29896424525573       -1.55717259333945        0.25857128206879
C            1.44966753515517       -2.91324235797011        0.28997387290250
N            2.75925619773011       -3.24139391868129        0.11862578446231
C            3.48597491279730       -2.10235398845338       -0.02109946824060
N            4.81071539544588       -2.07561348917070       -0.19787796974434
C            5.36570255657898       -0.88907426357470       -0.31182372909550
H           -2.55663475307403       -0.04331488111704       -1.39359844885936
H            3.14805584097459       -4.16916461158304        0.10704536013620
H           -3.93659205041611       -2.09889111973100       -1.57076069232285
H           -3.92254622240658       -0.57345705752629        0.96224824208498
H           -5.80072054973475       -0.58675319139369       -1.31512067126129
H           -6.17509857534413       -0.55758570073018        0.42725044973049
H           -5.30490650307476        1.72328487751949        0.62336337684530
H           -6.24049149763026        1.77589192423364       -0.87573860618142
H           -4.25660585668193        1.38456879216047       -2.22225727217464
H           -3.66189362099474        2.50191775071932       -0.98780526298749
H           -1.47213237388854        1.81480957431532       -1.73582364165551
H           -0.83417339922016        3.25747526662391       -0.93450463692583
H            0.58491953093598        0.55333758423064       -1.14243715624188
H            0.98383382443676        2.01046880649562       -2.05102309310367
H            1.58886863847358        3.20325507111998       -0.01480970408257
H            0.89509279661257        0.67999556832887        1.55571801299586
H            1.44143144107061        2.22104627160418        2.20428328702759
H           -0.60670452753326        3.34314777490886        1.43850502915855
H           -1.04913347645309        1.91775650104645        2.40673220289802
H            3.92429322826350        3.36797454074539       -0.29788759180958
H            0.37208781975947       -1.03806399449541        0.39017685136302
H            0.70633548518307       -3.67278865210759        0.42623288868818
H            6.43606181202054       -0.86036243404486       -0.45200191216165
H           -2.25098492918863       -3.49354958857683       -0.27017725285420
H           -1.64684554707911       -1.90134274275096       -0.66399658147458
H           -2.23044894201491       -2.24649391178300        0.96891450107480
H           -5.83480617607532       -2.81414043962857       -0.14943882398691
H           -4.56508138234515       -4.01592348897638       -0.06646260286443
H           -4.77305806565722       -2.89039855611222        1.26560880727174
