42
 energy: -67.915665038600 gnorm: 0.000068340012 xtb: 6.7.1 (edcfbbe)
C           -0.19025217090000       -3.41839000990000        0.00046381810000
C            0.00033460110000       -1.90064265070000        0.00022619020000
C           -0.63592711310000       -1.29191075690000       -1.26186356960000
C           -2.16382093400000       -1.36656732860000       -1.22120205120000
N           -2.71300938560000       -0.81837787010000        0.00028793470000
C           -2.16355629260000       -1.36600437380000        1.22190787610000
C           -0.63563802590000       -1.29150536880000        1.26227383000000
S           -3.17576694480000        0.77329947730000       -0.00015298140000
O           -2.75242520540000        1.41553978220000        1.23012128010000
O           -2.75140091080000        1.41526299380000       -1.23022814210000
C           -4.96278947160000        0.65740849690000       -0.00093116540000
N            1.43129552460000       -1.58482215280000       -0.00006404930000
C            2.45169960540000       -2.49280070630000       -0.00033437940000
N            3.64013968790000       -1.97552397340000       -0.00036637260000
C            3.43398676860000       -0.61941681670000       -0.00026657960000
C            2.04060264140000       -0.34964235480000       -0.00007059470000
C            1.64840169060000        0.99904973820000        0.00001713960000
C            0.46469289560000        1.78878106070000        0.00011015040000
C            0.85443100660000        3.09642907510000        0.00020403520000
N            2.21275053340000        3.18199737070000        0.00024506560000
C            2.73138483730000        1.92663770870000       -0.00000181790000
N            4.04227404440000        1.67103149370000       -0.00003941050000
C            4.38664987150000        0.40243838500000       -0.00018951890000
H           -0.34344195730000       -0.24588029220000       -1.35114427340000
H           -0.27200214910000       -1.81852275870000       -2.14527985320000
H           -2.57454655130000       -0.78119128600000       -2.04301436910000
H           -2.50811166340000       -2.39937581860000       -1.31086070870000
H           -2.57410249350000       -0.78020119180000        2.04350306300000
H           -2.50792801460000       -2.39873484590000        1.31213601830000
H           -0.27157289850000       -1.81793232820000        2.14574608190000
H           -0.34303400240000       -0.24548795400000        1.35121796370000
H            2.29784049230000       -3.55074702480000        0.00004132140000
H           -0.55879587770000        1.47000481350000        0.00021661930000
H            0.23882392320000        3.97350912120000        0.00046877190000
H            5.44276561930000        0.18029633160000       -0.00029229830000
H            2.76144506560000        4.02535817980000        0.00043165390000
H            0.25245561480000       -3.86236436920000       -0.88709206730000
H            0.25309331560000       -3.86206531190000        0.88784874250000
H           -1.24895818410000       -3.65108110300000        0.00087010430000
H           -5.35822012880000        1.66416603000000       -0.00085289380000
H           -5.25154812360000        0.12462796200000        0.89366564750000
H           -5.25083676950000        0.12505312030000       -0.89601594830000
