  57

 C        -14.7398253190       37.8640571370       -3.8929458830
 C        -14.5794406960       36.3482313400       -3.8835897230
 C        -15.9071137900       35.6483040660       -4.1619310510
 N        -14.0594793380       35.8911211440       -2.4922789860
 C        -12.7736896600       36.5979148360       -2.0482363450
 C        -12.0812136370       35.6110774520       -1.1021729000
 C        -12.4669185540       34.2107480240       -1.6050743570
 C        -13.7408837440       34.3862490660       -2.4602707180
 C        -14.9229760550       33.6504752670       -1.8115336340
 O        -15.7230427710       34.3058962860       -1.1303959200
 N        -15.1029416220       32.3104423110       -2.0359751380
 C        -16.1582541180       31.5824841620       -1.2594721210
 C        -15.5411158720       30.4776472860       -0.3888850630
 C        -14.6882387510       29.5510314220       -1.2771821110
 C        -13.5480972750       30.3642034930       -1.9173433920
 C        -14.1742438030       31.4414533180       -2.8169441320
 N        -14.1774831650       28.3956879270       -0.5007670520
 C        -12.9332178410       28.2646254340        0.1668838010
 N        -12.7733015210       27.0344958400        0.6917878930
 C        -13.9414675050       26.3205376020        0.3754329330
 C        -14.8381314010       27.1697394000       -0.3589680690
 C        -16.0966698420       26.6681892620       -0.7471278420
 C        -17.2769964090       27.1423214290       -1.3918178760
 C        -18.1826191210       26.0860805220       -1.4294903060
 N        -17.6156291990       24.9518462100       -0.8291420420
 C        -16.3335015930       25.2890149980       -0.3910958560
 N        -15.4612656320       24.4448716890        0.2880559040
 C        -14.2942278910       24.9675285300        0.6662093650
 H        -13.5614620110       34.0386087860       -3.5140124000
 H        -18.0594370850       24.0469011640       -0.7224065680
 H        -13.8064809320       36.0409830950       -4.6429689300
 H        -14.8192163660       36.0783669580       -1.7679466880
 H        -12.1283696350       36.8052369560       -2.9422811120
 H        -13.0312583930       37.5610360520       -1.5368065850
 H        -12.4282571720       35.7601862790       -0.0502867880
 H        -10.9734727500       35.7558835890       -1.1262286640
 H        -11.6483492300       33.7834602450       -2.2357714470
 H        -12.6436924220       33.5213213360       -0.7440678490
 H        -16.7033605150       32.3173924800       -0.6048765850
 H        -16.8793615840       31.1443350050       -2.0018222870
 H        -14.9054714780       30.9272643560        0.4141578340
 H        -16.3618329160       29.8997102420        0.1043854960
 H        -15.3313515010       29.1204682410       -2.0997296690
 H        -12.9155998240       30.8500126790       -1.1338283300
 H        -12.8925345750       29.7031170420       -2.5390565220
 H        -14.7846908840       30.9602341850       -3.6342918280
 H        -13.3574550060       32.0364567110       -3.2956907730
 H        -12.2135176670       29.0758435140        0.2350925310
 H        -17.4470968200       28.1327972310       -1.7684241660
 H        -19.1860759560       26.0657591830       -1.8339802770
 H        -13.5948489940       24.3217468480        1.2158945050
 H        -15.7944543920       34.5442406530       -4.2479454690
 H        -16.6675665710       35.8784348930       -3.3776463970
 H        -16.3073415790       36.0169144120       -5.1424697540
 H        -13.7577867480       38.3881868590       -3.8359419000
 H        -15.2197722910       38.1650575200       -4.8608717520
 H        -15.3946985740       38.2206680290       -3.0639070030
