  57
        -81.18362314
 C         -6.5948845148       -0.8179903798       -0.3788315990
 C         -5.5070929983       -0.0143382888        0.3238658013
 C         -5.5035287542        1.4196080776       -0.1934623457
 N         -4.1789859751       -0.6455109653        0.0794939492
 C         -4.0978091356       -2.0842624363        0.4328227223
 C         -2.6082122633       -2.3233449020        0.6180182500
 C         -2.1842339762       -1.0690724323        1.3762248915
 C         -3.0197929428        0.0427202742        0.7177332881
 C         -2.2759713626        0.7491581080       -0.4348807034
 O         -2.6232397113        0.4723590058       -1.5869825297
 N         -1.3287712489        1.6323926138       -0.1494016571
 C         -0.6231770886        2.3104415485       -1.2228248472
 C          0.8425297685        1.8842266001       -1.2463440791
 C          1.4905452097        2.1245360228        0.1222919359
 C          0.6574939400        1.5200559067        1.2598057933
 C         -0.8043397933        1.9622480918        1.1588566728
 N          2.8322399594        1.5855185075        0.1507280736
 C          3.9664170730        2.3119795899        0.3568407996
 N          5.0585496399        1.6124859076        0.3771589623
 C          4.6499784225        0.3156458514        0.1733351809
 C          3.2411598790        0.2824375067        0.0231164767
 C          2.6305193847       -0.9588126054       -0.1985973921
 C          1.3392956953       -1.5110237839       -0.4188106462
 C          1.4984018821       -2.8599714299       -0.5523347850
 N          2.8125451865       -3.1895060209       -0.4260986689
 C          3.5344012719       -2.0579483318       -0.2179200496
 N          4.8625974652       -2.0342524192       -0.0685330699
 C          5.4133160765       -0.8552257563        0.1191035858
 H         -3.3758866446        0.7711723460        1.4448441940
 H          3.2074956958       -4.1126175101       -0.4884213185
 H         -5.6784615745       -0.0268297297        1.4048492913
 H         -3.9586528770       -0.5341193270       -0.9425946942
 H         -4.6285266913       -2.2419747568        1.3727310908
 H         -4.5366800740       -2.6997732747       -0.3475402083
 H         -2.1043410025       -2.3779532130       -0.3473678369
 H         -2.4007719295       -3.2345061902        1.1707627052
 H         -2.4480850154       -1.1596841724        2.4290102592
 H         -1.1159436229       -0.8908499609        1.3049014151
 H         -1.1060526892        2.0597348798       -2.1677606702
 H         -0.6976809792        3.3885005562       -1.0573168546
 H          0.9196224696        0.8311731710       -1.5120941601
 H          1.3731212169        2.4560286588       -2.0080166258
 H          1.5879584341        3.2041447519        0.2837186562
 H          0.7309673091        0.4344861641        1.2143160646
 H          1.0666280152        1.8413356917        2.2178877430
 H         -0.8624231059        3.0479495164        1.2806081403
 H         -1.3827515489        1.4897439030        1.9476516726
 H          3.9432096934        3.3759654604        0.4907815059
 H          0.4074201614       -0.9912653760       -0.5058469984
 H          0.7586220394       -3.6145324371       -0.7302633761
 H          6.4866486859       -0.8284306282        0.2347440862
 H         -6.4955752547        1.8457020634       -0.0797870223
 H         -4.8092756877        2.0580919132        0.3444606117
 H         -5.2463152829        1.4431047114       -1.2501818436
 H         -6.3883914510       -0.8942607966       -1.4434204984
 H         -6.7033334491       -1.8142570249        0.0368837953
 H         -7.5468593919       -0.3091422259       -0.2610616231
  57
        -81.18271853
 C         -6.1821470749        1.3334168667        2.3708045128
 C         -4.8852900444        0.6232046695        2.0020889843
 C         -3.6912455476        1.5078541106        2.3420897071
 N         -4.8816147330        0.3051110568        0.5455055158
 C         -6.0587359415       -0.4610582675        0.0695706567
 C         -5.5772849359       -1.0800462120       -1.2326359066
 C         -4.1626605992       -1.5238311282       -0.8682609266
 C         -3.6623655578       -0.3969502300        0.0544561319
 C         -2.8571729515        0.6604352098       -0.7259541951
 O         -3.4107249295        1.7385255699       -0.9590996026
 N         -1.6343207360        0.3565780356       -1.1405238506
 C         -0.8900737564       -0.8482986198       -0.8353575001
 C          0.3266626046       -0.5026404308        0.0268260017
 C          1.1970538351        0.5302927525       -0.7009783740
 C          0.3541463870        1.7662114792       -1.0131507682
 C         -0.8494132802        1.3470745970       -1.8574176991
 N          2.3733801964        0.8432373377        0.0807832878
 C          2.5984972049        1.8894403570        0.9251974035
 N          3.7569676151        1.8637970279        1.5125821432
 C          4.3686834613        0.7219537530        1.0496095804
 C          3.4979278082        0.0678192818        0.1478225826
 C          3.9117981110       -1.1265693180       -0.4439536264
 C          3.4244886831       -2.1051128201       -1.3480043829
 C          4.4066119046       -3.0446024262       -1.4747839127
 N          5.4783125723       -2.7122068892       -0.7007747014
 C          5.2132439994       -1.5463340910       -0.0551705613
 N          6.0493009598       -0.9353533519        0.7912207612
 C          5.6288360241        0.1860279150        1.3374288921
 H         -3.0933182092       -0.7799598704        0.9000287746
 H          6.3332337293       -3.2347636217       -0.6116712205
 H         -4.8185443146       -0.3267437612        2.5418083939
 H         -4.8329441518        1.2153550832        0.0227351324
 H         -6.2862879132       -1.2376557686        0.8011622636
 H         -6.9193805534        0.1893991215       -0.0594131591
 H         -5.5526144619       -0.3325199770       -2.0256956380
 H         -6.2042296350       -1.9064388363       -1.5536332142
 H         -4.1923422563       -2.4680870948       -0.3264775755
 H         -3.5347577857       -1.6460303011       -1.7466320407
 H         -1.5119112591       -1.5794240759       -0.3277757086
 H         -0.5495054723       -1.2825804909       -1.7800292014
 H          0.0078968558       -0.0858648061        0.9839930092
 H          0.9057042289       -1.4048372858        0.2230324706
 H          1.5590900056        0.0979579206       -1.6415692885
 H         -0.0038336530        2.2206516143       -0.0885203754
 H          0.9437549764        2.5048352908       -1.5551973639
 H         -0.5145402434        0.9137761723       -2.8033011235
 H         -1.4879431548        2.2062723251       -2.0647109709
 H          1.8875871837        2.6739634621        1.0854850636
 H          2.4761132585       -2.1194184717       -1.8445803834
 H          4.4154200033       -3.9365375562       -2.0690719761
 H          6.3058035285        0.6765796256        2.0210434139
 H         -3.7049460987        2.4143584642        1.7408294525
 H         -3.7423890523        1.7969425363        3.3873694287
 H         -2.7412422828        1.0046596881        2.1880620695
 H         -6.3107247037        2.2330142717        1.7741846654
 H         -7.0497347697        0.6940242973        2.2458660317
 H         -6.1422225611        1.6302804665        3.4145597440
  57
        -81.18268347
 C         -2.5908054437       -2.5785387764       -0.0756519973
 C         -3.9101129805       -1.9715383128       -0.5341938336
 C         -3.9866655666       -1.9088779747       -2.0546944387
 N         -4.0990995105       -0.6334663254        0.1048884596
 C         -5.4962767420       -0.1315310139        0.0611180928
 C         -5.3488402286        1.3755484470        0.1952387219
 C         -4.1173389476        1.6482156378       -0.6655889670
 C         -3.1943251729        0.4649853884       -0.3321354153
 C         -2.2984530545        0.7735381601        0.8855778422
 O         -2.5596239308        0.1935998902        1.9444388326
 N         -1.3269603860        1.6666700397        0.7563148325
 C         -0.8678087570        2.2775039138       -0.4742095178
 C          0.5391759658        1.7731569809       -0.8029492967
 C          1.4925914713        2.0532268470        0.3647021967
 C          0.9334205637        1.5129159328        1.6861413101
 C         -0.4959394756        2.0076409576        1.8978807024
 N          2.7991584717        1.4960150253        0.0945356838
 C          3.9488523594        2.2181714302       -0.0227209635
 N          5.0040468249        1.5127720645       -0.2896302400
 C          4.5519475920        0.2164787168       -0.3620179679
 C          3.1562085684        0.1891415777       -0.1175848199
 C          2.5063226790       -1.0511332217       -0.1448710736
 C          1.2078514136       -1.6003816862        0.0333481352
 C          1.3152268384       -2.9486948875       -0.1499897253
 N          2.6036863339       -3.2792119124       -0.4371576360
 C          3.3602169174       -2.1510961874       -0.4379514089
 N          4.6754228159       -2.1312095144       -0.6761575477
 C          5.2640269244       -0.9562819716       -0.6340652966
 H         -2.5928498588        0.1427021612       -1.1792769632
 H          2.9612899978       -4.2037513217       -0.6093262874
 H         -4.7337232921       -2.5862398042       -0.1595494324
 H         -3.8227331874       -0.7290832925        1.1167566988
 H         -5.9371208654       -0.3834930486       -0.9026760638
 H         -6.0858840465       -0.5843812161        0.8549380276
 H         -5.1592337462        1.6534332657        1.2322940819
 H         -6.2284983632        1.9089518949       -0.1522089612
 H         -4.3836150937        1.6296526766       -1.7216280089
 H         -3.6652617726        2.6084541162       -0.4350561585
 H         -1.5383204014        2.0600889728       -1.3001481895
 H         -0.8395229589        3.3607046634       -0.3246292739
 H          0.5185057012        0.7028563298       -1.0032782904
 H          0.9052323945        2.2757586251       -1.6984716945
 H          1.6345480748        3.1362009732        0.4567102207
 H          0.9534613257        0.4243278559        1.6790618103
 H          1.5582288550        1.8491787264        2.5139363222
 H         -0.5022778539        3.0945343043        2.0157227160
 H         -0.9265245577        1.5491499363        2.7886877934
 H          3.9651084177        3.2839583917        0.0972204283
 H          0.3070339519       -1.0832614405        0.2937123066
 H          0.5553471735       -3.7020448167       -0.0921584068
 H          6.3272866471       -0.9339270779       -0.8215349858
 H         -4.8572971025       -1.3618636457       -2.4020319348
 H         -3.0953522963       -1.4654041825       -2.4889827681
 H         -4.0627960135       -2.9218597561       -2.4388422654
 H         -2.4978178514       -2.5526228341        1.0076366180
 H         -2.5429116885       -3.6160456986       -0.3920538316
 H         -1.7406457930       -2.0605472488       -0.5109632249
  57
        -81.18265573
 C         -6.2605542474        2.2381033904       -1.4381271021
 C         -5.0235686505        2.0887936502       -0.5606794931
 C         -3.7665853004        2.3520960689       -1.3820671018
 N         -4.9755164306        0.7133052314        0.0125011512
 C         -6.1966258050        0.2976646234        0.7441114347
 C         -5.7118788230       -0.8413076941        1.6264507984
 C         -4.3692504842       -0.3090906648        2.1215128469
 C         -3.8082183001        0.4367886492        0.8965052832
 C         -2.8624065161       -0.4585036116        0.0719482114
 O         -3.2955648781       -0.9178769100       -0.9884334713
 N         -1.6538506675       -0.7242133259        0.5500421044
 C         -1.0477164940       -0.1559780779        1.7371412427
 C          0.1298224622        0.7375581151        1.3341004097
 C          1.1485126157       -0.0992935424        0.5611465624
 C          0.4656831794       -0.7168235513       -0.6664857952
 C         -0.7373047273       -1.5460812954       -0.2212746220
 N          2.3087460915        0.6671452822        0.1622904476
 C          2.4291667498        2.0082919240       -0.0501895380
 N          3.6034212556        2.3826690009       -0.4605579864
 C          4.3392006835        1.2238070851       -0.5469300293
 C          3.5256910622        0.1334307270       -0.1606539839
 C          4.0690680961       -1.1521106270       -0.1752538991
 C          3.6793377869       -2.4882662393        0.0987401367
 C          4.7704156051       -3.2719179597       -0.1433826939
 N          5.8192440509       -2.5040980429       -0.5540725657
 C          5.4287076548       -1.2030259261       -0.5873093958
 N          6.2104497944       -0.1808034246       -0.9513204393
 C          5.6687269342        1.0186791383       -0.9316859388
 H         -3.3257766491        1.3733878532        1.1710415483
 H          6.7381596733       -2.8327332102       -0.7978451240
 H         -5.0805419576        2.7883386967        0.2793093533
 H         -4.8096766844        0.0446409591       -0.7809554207
 H         -6.5380802302        1.1354172336        1.3537911208
 H         -6.9803232333       -0.0008300553        0.0533730578
 H         -5.5716541627       -1.7482902432        1.0381650028
 H         -6.4002351950       -1.0568269317        2.4381030285
 H         -4.5210187474        0.3845583982        2.9472347378
 H         -3.7116197359       -1.1076947272        2.4540268553
 H         -1.7693069085        0.4148157149        2.3137345472
 H         -0.6829456209       -0.9784516658        2.3592154970
 H         -0.2336106526        1.5484632691        0.7020792029
 H          0.5889793821        1.1664929546        2.2240452395
 H          1.5186009714       -0.9034544619        1.2084558272
 H          0.1420569150        0.0793183973       -1.3398470675
 H          1.1673327911       -1.3516644096       -1.2072751886
 H         -0.4059858896       -2.3801961054        0.4029547739
 H         -1.2720087018       -1.9392004344       -1.0863263793
 H          1.6315085307        2.7021234547        0.1181517979
 H          2.7208755613       -2.8336934151        0.4282895357
 H          4.8723113411       -4.3348797365       -0.0505136786
 H          6.3020812652        1.8417515618       -1.2277203981
 H         -3.8430341637        3.3253700313       -1.8571141945
 H         -2.8648820607        2.3532332389       -0.7769514986
 H         -3.6579129350        1.6034421061       -2.1638143144
 H         -6.2675323579        1.4865506891       -2.2235314067
 H         -7.1798720790        2.1667070126       -0.8663820539
 H         -6.2457638277        3.2145106993       -1.9130793995
  57
        -81.18259444
 C         -6.1874483387        2.7858724231        1.0753865833
 C         -4.9599962402        1.9192404712        1.3294712737
 C         -3.6909764118        2.7218282705        1.0660193711
 N         -4.9958584019        0.7224913864        0.4411311016
 C         -6.2383114730       -0.0825483454        0.5259411291
 C         -5.8228208214       -1.4364040538       -0.0264672605
 C         -4.4481627987       -1.6295260771        0.6091670459
 C         -3.8454273762       -0.2124373564        0.5921952891
 C         -2.9592200257        0.0121157132       -0.6487910169
 O         -3.4226825588        0.7024752219       -1.5608207257
 N         -1.7684324606       -0.5699821108       -0.6987284385
 C         -1.1231951080       -1.3160819528        0.3622328721
 C          0.1037051206       -0.5478489861        0.8613051428
 C          1.0637253091       -0.2990949509       -0.3071831798
 C          0.3298917709        0.4430999527       -1.4297799546
 C         -0.9059964872       -0.3522156842       -1.8472407681
 N          2.2328509852        0.4335414268        0.1233976138
 C          2.2613948671        1.6804268054        0.6754806566
 N          3.4511551021        2.1132222378        0.9620614077
 C          4.2998114220        1.1003851251        0.5802404450
 C          3.5374863558        0.0335262597        0.0467795058
 C          4.2040924443       -1.1072336686       -0.4063613539
 C          3.9114946300       -2.3675754796       -0.9890189609
 C          5.1058194826       -3.0009443456       -1.1768947006
 N          6.1292754023       -2.2114526948       -0.7455112702
 C          5.6182887173       -1.0463863169       -0.2684974654
 N          6.3495237588       -0.0450516849        0.2321828158
 C          5.6942740204        1.0161967477        0.6520704165
 H         -3.3048149987        0.0152288277        1.5094131898
 H          7.1086432681       -2.4399358981       -0.7697794970
 H         -4.9713192794        1.5570973872        2.3623964477
 H         -4.8740231174        1.0576127913       -0.5473012551
 H         -6.5252142821       -0.1688099579        1.5749085935
 H         -7.0409864825        0.3816089320       -0.0403599650
 H         -5.7411757884       -1.3978422663       -1.1128538065
 H         -6.5208114167       -2.2237675295        0.2417153112
 H         -4.5540521358       -1.9809892718        1.6345084001
 H         -3.8404546527       -2.3419765958        0.0578805460
 H         -1.8063408474       -1.5049343333        1.1848669037
 H         -0.8034287369       -2.2785578308       -0.0474418021
 H         -0.2025216546        0.4080426413        1.2880986159
 H          0.6057871079       -1.1237755891        1.6383052356
 H          1.4244526674       -1.2585134687       -0.6874530620
 H          0.0298736295        1.4334053461       -1.0838463284
 H          0.9892013073        0.5709052458       -2.2881280883
 H         -0.6081905019       -1.3231805587       -2.2512229749
 H         -1.4717758104        0.1909751446       -2.6047104525
 H          1.3762104481        2.2561360382        0.8568059758
 H          2.9508499310       -2.7666870369       -1.2433964685
 H          5.2974530288       -3.9702422575       -1.5923463333
 H          6.2861262541        1.8237631177        1.0565798936
 H         -2.7899039496        2.1754441347        1.3284509813
 H         -3.6307052755        3.0071508361        0.0179500298
 H         -3.7080126912        3.6297294905        1.6611760617
 H         -7.1079318678        2.2856503142        1.3576092831
 H         -6.1131308475        3.6927692253        1.6679608384
 H         -6.2431692166        3.0760476816        0.0291986369
  57
        -81.18257133
 C         -5.7026215745        1.1400651434       -0.6654261587
 C         -5.5659220605       -0.1716051199        0.0967616701
 C         -5.9227696598        0.0032960233        1.5679829642
 N         -4.1897043718       -0.7207675640       -0.0965360577
 C         -4.0504461014       -2.1618669819        0.2312709767
 C         -2.5643891498       -2.3279756496        0.5060828035
 C         -2.2480805669       -1.0534483349        1.2846254806
 C         -3.0701087769        0.0179467287        0.5506281697
 C         -2.2979080116        0.6840237198       -0.6077597082
 O         -2.6187886155        0.3663568022       -1.7579825450
 N         -1.3617936424        1.5813163978       -0.3321698618
 C         -0.6287214216        2.2195577917       -1.4115161954
 C          0.8403476239        1.8065310209       -1.3698032111
 C          1.4432441857        2.1148408538        0.0059383932
 C          0.5806378946        1.5520307298        1.1427731468
 C         -0.8813982946        1.9730423973        0.9761633996
 N          2.7889462605        1.5930780498        0.0986852413
 C          3.9095821157        2.3409302130        0.3023845018
 N          5.0082609009        1.6558134926        0.3799092176
 C          4.6191580712        0.3468406167        0.2202447754
 C          3.2150553568        0.2908069604        0.0365955789
 C          2.6234222247       -0.9655583831       -0.1478055976
 C          1.3435962683       -1.5412730267       -0.3738297629
 C          1.5204293808       -2.8924564728       -0.4495581639
 N          2.8352056183       -3.2010135159       -0.2823233103
 C          3.5396341815       -2.0536489123       -0.1027831189
 N          4.8635748534       -2.0080878430        0.0765632256
 C          5.3963785911       -0.8160761540        0.2313694333
 H         -3.4604647484        0.7793759977        1.2225984017
 H          3.2412883915       -4.1212474977       -0.2980857922
 H         -6.2367742574       -0.9122281906       -0.3480690832
 H         -3.9475114666       -0.5959511483       -1.1142756021
 H         -4.6286901782       -2.3839009714        1.1275590068
 H         -4.4141477088       -2.7732968985       -0.5913701259
 H         -2.0007141339       -2.3577135155       -0.4268381397
 H         -2.3457420021       -3.2276241074        1.0732165644
 H         -2.5939420961       -1.1461441287        2.3133166002
 H         -1.1848437780       -0.8366787851        1.2977227432
 H         -1.0792872753        1.9237789337       -2.3594208301
 H         -0.7171406739        3.3030908154       -1.2958131040
 H          0.9337902106        0.7431592110       -1.5845008533
 H          1.3899426241        2.3480796157       -2.1400463788
 H          1.5248477300        3.2015961446        0.1217398982
 H          0.6670522833        0.4664851995        1.1483882394
 H          0.9551525429        1.9207029339        2.0979160645
 H         -0.9527582460        3.0624658744        1.0476718177
 H         -1.4806941879        1.5302445062        1.7666077313
 H          3.8715480198        3.4092532454        0.3907650005
 H          0.4080185702       -1.0364033203       -0.4993260387
 H          0.7931746184       -3.6623224618       -0.6129902801
 H          6.4661619555       -0.7719397248        0.3720728268
 H         -5.6739661657       -0.8727250858        2.1585152012
 H         -5.4376347930        0.8721539865        2.0034409058
 H         -6.9945818524        0.1586638518        1.6485726110
 H         -5.4241916945        1.0202699203       -1.7098953234
 H         -6.7348370903        1.4747181145       -0.6290932295
 H         -5.0829254916        1.9205139087       -0.2315019570
  57
        -81.18251044
 C         -6.0517412858       -0.0417282552        1.4659507540
 C         -5.4946286563        0.1604870511        0.0626279004
 C         -6.4634350300       -0.3412867626       -0.9994075669
 N         -4.1718355612       -0.5081945404       -0.1222055074
 C         -4.1175937747       -1.9621049488        0.1630927814
 C         -2.6370347946       -2.2176768929        0.3981391526
 C         -2.2385700354       -1.0003568612        1.2295180356
 C         -3.0296535004        0.1453445720        0.5768628592
 C         -2.2407840277        0.8752078608       -0.5314436209
 O         -2.5770844285        0.6577818917       -1.7007083317
 N         -1.2740285665        1.7162312344       -0.1930322127
 C         -0.5214645491        2.4096918863       -1.2240444074
 C          0.9334678412        1.9473036211       -1.2178728618
 C          1.5465629402        2.1339549262        0.1749662927
 C          0.6682347875        1.5130804135        1.2685450459
 C         -0.7797359188        1.9917463286        1.1396493311
 N          2.8765395391        1.5682534711        0.2253764557
 C          4.0175497655        2.2674250350        0.4823896396
 N          5.0961594894        1.5476554683        0.5108313295
 C          4.6703445518        0.2650690814        0.2583194217
 C          3.2656484532        0.2620336309        0.0704824190
 C          2.6394412636       -0.9610134429       -0.2029615687
 C          1.3448841521       -1.4832693485       -0.4714962925
 C          1.4840457838       -2.8303217491       -0.6411782686
 N          2.7887190400       -3.1869257587       -0.4922782983
 C          3.5243703739       -2.0752939701       -0.2316107111
 N          4.8484052678       -2.0800337648       -0.0474750161
 C          5.4143245449       -0.9173271961        0.1895042986
 H         -3.3994000978        0.8703133729        1.3015105513
 H          3.1691246158       -4.1148873266       -0.5717396435
 H         -5.3116546064        1.2263179516       -0.1073662651
 H         -3.9044333308       -0.3640424837       -1.1300464651
 H         -4.6821767033       -2.1694248537        1.0703343115
 H         -4.5295182230       -2.5302263352       -0.6668187761
 H         -2.0924654233       -2.2322048255       -0.5465151526
 H         -2.4556268310       -3.1534330096        0.9181290985
 H         -2.5563802209       -1.1321146769        2.2629271851
 H         -1.1663174017       -0.8335687368        1.2189089536
 H         -0.9821689122        2.2003916050       -2.1899128946
 H         -0.5745856783        3.4838059235       -1.0274034901
 H          0.9925352819        0.9002119563       -1.5106064528
 H          1.4995280222        2.5263811926       -1.9478175907
 H          1.6597337515        3.2061857026        0.3714831813
 H          0.7199991077        0.4281147160        1.1908307808
 H          1.0555363089        1.7955547197        2.2477067630
 H         -0.8166175313        3.0742295768        1.2938990648
 H         -1.3924858418        1.5097112059        1.8959969877
 H          4.0094779721        3.3273417307        0.6468348144
 H          0.4244361099       -0.9446488396       -0.5648651817
 H          0.7361035961       -3.5659407337       -0.8597380875
 H          6.4845827072       -0.9131296840        0.3332761475
 H         -6.0565134002       -0.2002760012       -1.9978126153
 H         -6.6996324461       -1.3914620548       -0.8555316141
 H         -7.3906884789        0.2201198607       -0.9354052759
 H         -6.4760790916       -1.0341232205        1.5866404096
 H         -5.3000295243        0.1195129695        2.2329530397
 H         -6.8511508300        0.6747843234        1.6307852389
  57
        -81.18250718
 C         -7.4251357961        0.0957716289       -0.0218611444
 C         -6.0960161401        0.7990441052       -0.2696294452
 C         -5.5964527770        0.4896197780       -1.6761292408
 N         -5.0928350647        0.3470312976        0.7365176353
 C         -5.5160887013        0.4950292579        2.1499494394
 C         -4.2044245570        0.4734302769        2.9175343619
 C         -3.3073198036        1.3381312088        2.0353288094
 C         -3.7427940410        0.9648626348        0.6062381386
 C         -2.8403345580       -0.1276709931       -0.0006515500
 O         -3.2943241016       -1.2743356751       -0.0505393193
 N         -1.6354987455        0.2047691589       -0.4454138238
 C         -0.7702867038       -0.8169308995       -1.0105857499
 C          0.5253326339       -0.9217091508       -0.2102226708
 C          1.2179568448        0.4465376131       -0.1805022661
 C          0.2625081588        1.4724102057        0.4263613642
 C         -1.0239630138        1.5180745756       -0.4041243914
 N          2.4737961129        0.3669840812        0.5328114846
 C          2.7563153203        0.6817477189        1.8288060790
 N          3.9849278264        0.4494560746        2.1810291408
 C          4.5880340358       -0.0680968547        1.0583634672
 C          3.6372408996       -0.1297775742        0.0134523811
 C          4.0305206087       -0.6326464534       -1.2277117799
 C          3.4766109004       -0.8937057568       -2.5072971522
 C          4.4818502894       -1.4134253803       -3.2704936436
 N          5.6318221612       -1.4932078666       -2.5428410490
 C          5.3949411240       -1.0271184661       -1.2885741567
 N          6.3061774689       -0.9685598656       -0.3114029996
 C          5.9039346966       -0.4952320057        0.8491994122
 H         -3.7987787977        1.8340400311       -0.0471460272
 H          6.5182935714       -1.8407171822       -2.8672922746
 H         -6.2201003732        1.8788875457       -0.1407080194
 H         -4.8872179575       -0.6655539299        0.5465555375
 H         -6.0110650876        1.4603393291        2.2650277611
 H         -6.1925962033       -0.3045750330        2.4386334118
 H         -3.8157204997       -0.5431982035        2.9812923425
 H         -4.3074467117        0.8694346502        3.9234380589
 H         -3.4974711517        2.3937537242        2.2234700364
 H         -2.2538317758        1.1393264806        2.2100338950
 H         -1.3070476950       -1.7659462043       -0.9979512923
 H         -0.5457646174       -0.5491483142       -2.0470791485
 H          0.3116472628       -1.2428700146        0.8109914643
 H          1.1778092608       -1.6649543970       -0.6681555651
 H          1.4656610616        0.7457021449       -1.2061440180
 H          0.0233563055        1.1859061825        1.4507829030
 H          0.7233110144        2.4595135140        0.4399865351
 H         -0.7803792920        1.8129967526       -1.4294896408
 H         -1.7012222137        2.2524989731        0.0213290592
 H          2.0351062007        1.0985176200        2.5013262484
 H          2.4689630078       -0.7261940583       -2.8283489808
 H          4.4561763574       -1.7358263218       -4.2923837587
 H          6.6415075773       -0.4506033640        1.6367277685
 H         -4.6981075695        1.0428883797       -1.9328616138
 H         -5.3895813878       -0.5730158513       -1.7822452137
 H         -6.3631612994        0.7562405521       -2.3970476271
 H         -7.8695581581        0.3799878701        0.9262559729
 H         -8.1249762158        0.3687460356       -0.8059175961
 H         -7.2993806794       -0.9836867082       -0.0497543740
  57
        -81.18249065
 C         -7.3652858351        0.4726045109        0.1907277657
 C         -5.9926434733       -0.0645934753        0.5776963574
 C         -5.5155016969        0.6016134770        1.8629956955
 N         -5.0206137481        0.1992330959       -0.5217212271
 C         -5.4336337890       -0.3032987184       -1.8542956086
 C         -4.1260395794       -0.3814457779       -2.6251936187
 C         -3.1754865933       -0.9570036575       -1.5783629723
 C         -3.6337075980       -0.2853939768       -0.2705627602
 C         -2.8027850268        0.9730603211        0.0484797568
 O         -3.3298661601        2.0689772158       -0.1630124173
 N         -1.5779187989        0.8295149903        0.5374032539
 C         -0.7780808716        2.0067429730        0.8315796349
 C          0.4905246583        2.0080195218       -0.0198099752
 C          1.2840629462        0.7362926673        0.2745283219
 C          0.4051546723       -0.4824052348       -0.0337212615
 C         -0.8822906560       -0.4160681078        0.7916142707
 N          2.5236393387        0.6691804609       -0.4681321066
 C          2.8653261004        1.2762010179       -1.6399495014
 N          4.0552484362        0.9803071607       -2.0690489424
 C          4.5660354619        0.1070228322       -1.1369050480
 C          3.6013678230       -0.0992996685       -0.1239740267
 C          3.9043884691       -0.9612064258        0.9312289215
 C          3.3031147112       -1.4728453131        2.1097691617
 C          4.2179278106       -2.3059705893        2.6862420602
 N          5.3550541890       -2.3473250416        1.9356675313
 C          5.2011041773       -1.5388797172        0.8545498596
 N          6.1249626593       -1.3486800595       -0.0934554790
 C          5.8078766534       -0.5353084958       -1.0785677105
 H         -3.6333370683       -0.9778830484        0.5697014178
 H          6.1829441127       -2.8820360951        2.1370704641
 H         -6.0449824026       -1.1498565263        0.7102633870
 H         -4.8799863823        1.2388822977       -0.5776757201
 H         -5.8655449470       -1.2975467499       -1.7318562945
 H         -6.1601838620        0.3619673939       -2.3125747137
 H         -3.8030367045        0.6136486970       -2.9318702762
 H         -4.2034315768       -1.0086227193       -3.5083312760
 H         -3.2985444574       -2.0368902760       -1.5103212284
 H         -2.1364966352       -0.7411795565       -1.8108277710
 H         -1.3807065513        2.8907128281        0.6209237518
 H         -0.5171372881        1.9978073998        1.8934576137
 H          0.2119084151        2.0420688050       -1.0737051651
 H          1.0842199297        2.8924015594        0.2092809619
 H          1.5602016812        0.7242625409        1.3359050126
 H          0.1757580205       -0.4902792074       -1.1007354296
 H          0.9430968116       -1.3999053989        0.2041991047
 H         -0.6263461401       -0.4493882759        1.8553548822
 H         -1.5077455861       -1.2713539379        0.5542813101
 H          2.2161328458        1.9501590991       -2.1604608970
 H          2.3255698461       -1.2570875839        2.4892668173
 H          4.1357247831       -2.8784114747        3.5886492224
 H          6.5551441252       -0.3852747920       -1.8435911178
 H         -5.3808167086        1.6703307527        1.7113483661
 H         -6.2626202641        0.4638709206        2.6385512012
 H         -4.5818807556        0.1852229202        2.2289702610
 H         -8.0458725443        0.3483017259        1.0276374503
 H         -7.3116084609        1.5337728125       -0.0391078406
 H         -7.7892715167       -0.0561619538       -0.6565198278
  57
        -81.18234882
 C         -7.4565094472        0.7896312808        0.3434598201
 C         -6.1768279983       -0.0250482700        0.1978658999
 C         -5.7156930046       -0.5203204460        1.5636804198
 N         -5.1125593732        0.8147527202       -0.4226961002
 C         -5.4903596062        1.4531066837       -1.7067466778
 C         -4.1518380439        1.7791042613       -2.3487854270
 C         -3.3413337587        0.5214387052       -2.0453540386
 C         -3.8061486951        0.1282433617       -0.6309796844
 C         -2.8641993651        0.6832187735        0.4557712755
 O         -3.2530671413        1.6645389185        1.0955881354
 N         -1.6964498722        0.0884067976        0.6613605644
 C         -0.7887390196        0.6110474555        1.6684433721
 C          0.5189749737        1.0596729352        1.0201403095
 C          1.1471062887       -0.1196147654        0.2703060630
 C          0.1480080319       -0.6641071968       -0.7559682609
 C         -1.1587897838       -1.0490159391       -0.0574306049
 N          2.3872183376        0.2639973181       -0.3652513882
 C          2.5576036234        1.2318005302       -1.3111452564
 N          3.7823307789        1.3764057063       -1.7163135104
 C          4.5047407134        0.4480007098       -1.0036500023
 C          3.6300162909       -0.2605074307       -0.1453223536
 C          4.1583610172       -1.2599217991        0.6751200911
 C          3.7258318063       -2.1970274967        1.6489562638
 C          4.8333116288       -2.8858035147        2.0514700046
 N          5.9340239508       -2.4353399358        1.3863721075
 C          5.5620369667       -1.4423845947        0.5369732691
 N          6.3982890465       -0.7808910679       -0.2699645667
 C          5.8721284452        0.1546119841       -1.0314953507
 H         -3.9357461071       -0.9475890474       -0.5245550624
 H          6.8757832064       -2.7714965455        1.4959866180
 H         -6.3531499392       -0.8720189160       -0.4727436974
 H         -4.8559567859        1.5637873557        0.2677950805
 H         -6.0362869135        0.7255389803       -2.3089423605
 H         -6.1074449485        2.3311053699       -1.5372388960
 H         -3.7020970663        2.6507575359       -1.8727476361
 H         -4.2399920613        1.9720778198       -3.4138084156
 H         -3.5874603575       -0.2665960188       -2.7555273388
 H         -2.2719753793        0.7064757839       -2.0910833882
 H         -1.2758287938        1.4493654551        2.1673532630
 H         -0.5907208426       -0.1746769907        2.4027234333
 H          0.3241586820        1.8790293261        0.3268505564
 H          1.2009802640        1.4226788925        1.7887977661
 H          1.3982094106       -0.9072322930        0.9857644887
 H         -0.0392004665        0.0980824273       -1.5132795661
 H          0.5651089333       -1.5399400881       -1.2525804073
 H         -0.9556678000       -1.8427254019        0.6681172794
 H         -1.8660663919       -1.4191674500       -0.7935780645
 H          1.7490500146        1.8256035482       -1.6874596788
 H          2.7315262432       -2.3520673578        2.0151478566
 H          4.9126668847       -3.6734255036        2.7741057781
 H          6.5477910169        0.6883452961       -1.6832113679
 H         -4.8573040437       -1.1823359751        1.5012033896
 H         -5.4583652324        0.3186272281        2.2065225260
 H         -6.5218334526       -1.0718481448        2.0375668095
 H         -8.1990305323        0.1963994869        0.8686535299
 H         -7.2754672367        1.6883290107        0.9276461917
 H         -7.8788644839        1.0660419116       -0.6169735731
  57
        -81.18226303
 C         -7.4377965738        0.7363302844        0.2416713594
 C         -6.1192777552        0.0112256671        0.4831198992
 C         -5.6046045544        0.3175868500        1.8847744111
 N         -5.1154152948        0.4420163454       -0.5316035381
 C         -5.5515964021        0.2980318720       -1.9415512422
 C         -4.2453933978        0.2933137942       -2.7186713829
 C         -3.3584278557       -0.5858450903       -1.8405671718
 C         -3.7757834647       -0.1997737646       -0.4095124409
 C         -2.8490788757        0.8781243386        0.1867025384
 O         -3.2824211452        2.0327176764        0.2382542687
 N         -1.6468529260        0.5252122261        0.6223777189
 C         -0.7566522014        1.5325726327        1.1742091819
 C          0.5105980926        1.6364856844        0.3281824902
 C          1.1977074204        0.2693696323        0.2830660274
 C          0.2213464320       -0.7732344596       -0.2734107639
 C         -1.0549270127       -0.7963266445        0.5717385063
 N          2.4136624799        0.3033263145       -0.4978438734
 C          2.5855858917        0.8255437560       -1.7460067200
 N          3.7861123526        0.6929333399       -2.2220185677
 C          4.4871665024        0.0297296353       -1.2419172792
 C          3.6249576930       -0.2258211935       -0.1492260316
 C          4.1300795027       -0.9065004803        0.9607818978
 C          3.6924554128       -1.3880227821        2.2217215041
 C          4.7690350407       -1.9872460370        2.8089898020
 N          5.8547210450       -1.9104198954        1.9890023421
 C          5.5032376785       -1.2592061245        0.8495541030
 N          6.3299157475       -1.0176223152       -0.1733563554
 C          5.8239854834       -0.3811329831       -1.2081742447
 H         -3.8419020068       -1.0655041794        0.2475199011
 H          6.7727625565       -2.2747280460        2.1799764320
 H         -6.2627847295       -1.0668178095        0.3594670645
 H         -4.8900975132        1.4512039058       -0.3458065167
 H         -6.0649748979       -0.6583295573       -2.0505003791
 H         -6.2153044389        1.1091932269       -2.2276589381
 H         -3.8383939394        1.3023750184       -2.7878420721
 H         -4.3628948820       -0.1031849709       -3.7227805463
 H         -3.5706378269       -1.6381462460       -2.0237735429
 H         -2.3024440311       -0.4090447878       -2.0238656199
 H         -1.2858309290        2.4858360906        1.1897860051
 H         -0.5002308303        1.2500066983        2.1989258662
 H          0.2474745004        1.9592463561       -0.6795170369
 H          1.1787287852        2.3813580215        0.7595775399
 H          1.4934172606       -0.0134957887        1.2974876760
 H         -0.0118034814       -0.5231717740       -1.3096511232
 H          0.6836883290       -1.7601713425       -0.2584416668
 H         -0.8002313619       -1.0925727735        1.5940308104
 H         -1.7486541027       -1.5225022748        0.1587530395
 H          1.7985598824        1.3092128725       -2.2884655562
 H          2.7139021212       -1.3110609423        2.6496501471
 H          4.8360104642       -2.4679161042        3.7646774515
 H          6.4921234367       -0.1890750417       -2.0345179239
 H         -5.3801444728        1.3772291395        1.9854818968
 H         -6.3701151743        0.0655705041        2.6121715398
 H         -4.7132848024       -0.2489901432        2.1368032022
 H         -7.8937734410        0.4559787605       -0.7021410265
 H         -8.1366626573        0.4787372371        1.0317574376
 H         -7.2932423902        1.8135441628        0.2642376244
  57
        -81.18144291
 C         -5.0835464569       -0.4388204017        2.7902900528
 C         -4.8491485174        0.8095504375        1.9494511481
 C         -5.8978251470        1.8768132418        2.2314785080
 N         -4.8322382687        0.5110987952        0.4855065026
 C         -6.0205404570       -0.1818067588       -0.0654793041
 C         -5.5099262369       -0.7572443731       -1.3771107311
 C         -4.1280089297       -1.2737952271       -0.9793224283
 C         -3.6184752764       -0.2013841384       -0.0001571694
 C         -2.7684405468        0.8711674745       -0.7110047981
 O         -3.2809067174        1.9828268845       -0.8767145749
 N         -1.5555504599        0.5484079211       -1.1380422619
 C         -0.8535848152       -0.6950850089       -0.8916679665
 C          0.3714735744       -0.4332679959       -0.0120592264
 C          1.2805726492        0.6015705391       -0.6880006685
 C          0.4827284751        1.8802510317       -0.9399352797
 C         -0.7343586496        1.5463140744       -1.8025147603
 N          2.4642434085        0.8335942863        0.1109970295
 C          2.7343017911        1.8416564961        0.9880461070
 N          3.8830349017        1.7378757459        1.5857952918
 C          4.4395331939        0.5794840487        1.0951912254
 C          3.5464562688       -0.0010408298        0.1654047937
 C          3.9057044414       -1.1963184247       -0.4595302111
 C          3.3807282561       -2.1189660580       -1.4005341489
 C          4.3147956993       -3.1035867390       -1.5465362948
 N          5.3919423121       -2.8519651126       -0.7498621442
 C          5.1787582739       -1.6950838754       -0.0699354085
 N          6.0347148299       -1.1550180624        0.8043868151
 C          5.6665294903       -0.0300442124        1.3799514757
 H         -3.0709304756       -0.6209323982        0.8429218270
 H          6.2180572600       -3.4200734991       -0.6686216413
 H         -3.8613635464        1.2229293278        2.1769184178
 H         -4.7372915336        1.4377286627       -0.0029292538
 H         -6.3098182329       -0.9851991927        0.6096698496
 H         -6.8468154871        0.5131261582       -0.1894474011
 H         -5.4236323926        0.0240071479       -2.1326638456
 H         -6.1531349784       -1.5429392072       -1.7619641649
 H         -4.2173707456       -2.2339903775       -0.4731372959
 H         -3.4755288143       -1.3922189014       -1.8398484908
 H         -1.5008052366       -1.4272964839       -0.4187110743
 H         -0.5259922061       -1.0945791096       -1.8560195328
 H          0.0630069638       -0.0513127282        0.9627058002
 H          0.9174341106       -1.3636735960        0.1426174617
 H          1.6300796655        0.2026692825       -1.6481268919
 H          0.1406263299        2.3020862211        0.0059240573
 H          1.0983709052        2.6227294914       -1.4466532025
 H         -0.4138541069        1.1494673174       -2.7691878039
 H         -1.3416787761        2.4370851797       -1.9658770953
 H          2.0654893883        2.6592095208        1.1636664973
 H          2.4401163724       -2.0673978102       -1.9092319922
 H          4.2858301903       -3.9753002365       -2.1694643321
 H          6.3596323278        0.4039463084        2.0852941969
 H         -5.8379550858        2.1743725491        3.2741103903
 H         -5.7291820909        2.7614246159        1.6219006278
 H         -6.9013111894        1.5037734190        2.0490228832
 H         -4.4747256026       -1.2760026841        2.4617677018
 H         -4.8174685549       -0.2210245732        3.8205946525
 H         -6.1286064085       -0.7337869408        2.7809655641
  57
        -81.18143058
 C         -3.9325922034        1.8440780980        2.3375160791
 C         -5.0014582958        0.8271197321        1.9580056776
 C         -4.8980468466       -0.4284157548        2.8153490764
 N         -4.9128812769        0.5332939412        0.4952002376
 C         -6.1136742235       -0.1226245302       -0.0785237292
 C         -5.5935779017       -0.7740920159       -1.3499701084
 C         -4.2402933013       -1.3171944236       -0.8950932771
 C         -3.7096095801       -0.2070207890        0.0277878776
 C         -2.8648210162        0.8244363979       -0.7465115188
 O         -3.3764479892        1.9268233814       -0.9666679509
 N         -1.6554170967        0.4782677896       -1.1657527440
 C         -0.9504060302       -0.7492162488       -0.8565049437
 C          0.2739762564       -0.4395213382        0.0086609516
 C          1.1791630591        0.5638794822       -0.7180372306
 C          0.3768997482        1.8251431005       -1.0356908721
 C         -0.8373397424        1.4422225543       -1.8818998981
 N          2.3614565993        0.8408099090        0.0684400985
 C          2.6183860290        1.8831187692        0.9086711288
 N          3.7704340594        1.8181944040        1.5054917095
 C          4.3435411016        0.6522122859        1.0536271267
 C          3.4565398101        0.0253271190        0.1483874854
 C          3.8319494925       -1.1859914451       -0.4347050308
 C          3.3174235660       -2.1503872195       -1.3388981225
 C          4.2666559379       -3.1245211716       -1.4543022378
 N          5.3432853160       -2.8271620516       -0.6728627211
 C          5.1145573390       -1.6501068551       -0.0337620754
 N          5.9653136291       -1.0656800591        0.8167253498
 C          5.5812231804        0.0727845048        1.3542000418
 H         -3.1551871978       -0.5959073328        0.8788189363
 H          6.1786870925       -3.3789086307       -0.5752443430
 H         -5.9876869722        1.2776557154        2.1023848954
 H         -4.7823001913        1.4556095401        0.0039808061
 H         -6.4750543713       -0.8807316465        0.6154259027
 H         -6.8987840060        0.6096967699       -0.2521404743
 H         -5.4624057420       -0.0307549742       -2.1366246762
 H         -6.2549994968       -1.5539531144       -1.7152416339
 H         -4.3747663786       -2.2398331786       -0.3320706705
 H         -3.5773459587       -1.5123134444       -1.7332744563
 H         -1.5958348775       -1.4587431862       -0.3476789151
 H         -0.6212531346       -1.1963127000       -1.7991599165
 H         -0.0348752556       -0.0103647944        0.9636031252
 H          0.8236951468       -1.3589831531        0.2091163503
 H          1.5311441033        0.1184356841       -1.6563798419
 H          0.0312202513        2.2936417923       -0.1133542045
 H          0.9909499787        2.5431435037       -1.5783144734
 H         -0.5140467494        0.9962335822       -2.8258931697
 H         -1.4474628381        2.3210160899       -2.0925764628
 H          1.9372768807        2.6957048157        1.0581733366
 H          2.3733000312       -2.1329248875       -1.8433773617
 H          4.2488040111       -4.0185254391       -2.0452694366
 H          6.2699711398        0.5424955153        2.0407267762
 H         -5.1982516921       -0.1800526704        3.8291441807
 H         -5.5522843483       -1.2207251661        2.4659879970
 H         -3.8808418307       -0.8063089555        2.8642364628
 H         -2.9345089184        1.4202958466        2.2610169043
 H         -3.9833670649        2.7256969401        1.7026963061
 H         -4.0812343314        2.1610140868        3.3652735072
  57
        -81.18142911
 C         -5.3604739359        3.1000163928        0.3512936371
 C         -4.9779878517        2.0644170661       -0.6982062113
 C         -5.9282937883        2.0982865067       -1.8873549027
 N         -4.9387589146        0.6793628086       -0.1389933118
 C         -6.1672768428        0.1994768706        0.5361603419
 C         -5.6683940272       -0.9640101086        1.3785349392
 C         -4.3550961778       -0.4136623315        1.9328532361
 C         -3.7816944114        0.3902239962        0.7522411066
 C         -2.8064638328       -0.4482518339       -0.0990724929
 O         -3.2054014587       -0.8337720442       -1.2027489378
 N         -1.6119826365       -0.7413223083        0.3958590070
 C         -1.0455518459       -0.2526509571        1.6371624542
 C          0.1534715191        0.6516928109        1.3345750447
 C          1.1939826663       -0.1433753359        0.5470933800
 C          0.5511333304       -0.6712380556       -0.7423430992
 C         -0.6722233098       -1.5172236713       -0.3953268696
 N          2.3738252851        0.6361816572        0.2419069579
 C          2.5162454399        1.9883435197        0.1428409206
 N          3.7054558202        2.3779373594       -0.2056464583
 C          4.4290111771        1.2195225324       -0.3676731773
 C          3.5924805600        0.1130972055       -0.0920871046
 C          4.1206245822       -1.1745184238       -0.1980609691
 C          3.7081981711       -2.5228411711       -0.0424780555
 C          4.7951352751       -3.2996538750       -0.3223402290
 N          5.8628053431       -2.5159742837       -0.6451441568
 C          5.4891976879       -1.2111104990       -0.5810448219
 N          6.2922402654       -0.1739517602       -0.8416486660
 C          5.7651668478        1.0275731889       -0.7357423663
 H         -3.3092784761        1.3215734067        1.0621161709
 H          6.7835306146       -2.8366503631       -0.8925811283
 H         -3.9636850214        2.2653380420       -1.0575925178
 H         -4.7392382098        0.0404624960       -0.9502840546
 H         -6.5533760382        0.9894566704        1.1779345028
 H         -6.9200830061       -0.0855464900       -0.1939637934
 H         -5.4838436719       -1.8393653827        0.7554226291
 H         -6.3687570237       -1.2372714470        2.1620955108
 H         -4.5510393820        0.2455283340        2.7774086482
 H         -3.6874155592       -1.2070904181        2.2568587443
 H         -1.7828874891        0.2921343157        2.2188486541
 H         -0.7119791144       -1.1151615833        2.2213574117
 H         -0.1806950484        1.5046540596        0.7432683161
 H          0.5820041722        1.0178190082        2.2668466619
 H          1.5336121811       -0.9925451571        1.1524688304
 H          0.2571598306        0.1709496789       -1.3717763137
 H          1.2666412185       -1.2752098458       -1.3000204348
 H         -0.3682194053       -2.3929208730        0.1844045759
 H         -1.1777041865       -1.8490129839       -1.3026575744
 H          1.7230494694        2.6774791447        0.3476012145
 H          2.7381104269       -2.8801245575        0.2365244379
 H          4.8817897751       -4.3679701557       -0.3141518633
 H          6.4157575248        1.8630423714       -0.9476639950
 H         -6.9559381704        1.9321505442       -1.5778212145
 H         -5.8773752950        3.0736461839       -2.3619835625
 H         -5.6532641110        1.3518086244       -2.6288138732
 H         -6.4279164310        3.0883332426        0.5504641546
 H         -4.8231370329        2.9576523029        1.2842621117
 H         -5.1120833476        4.0877869886       -0.0259791175
  57
        -81.18142730
 C         -3.8983116573        1.7958546108        2.3674620506
 C         -4.9760610688        0.7928716556        1.9759122531
 C         -4.8731536818       -0.4803306700        2.8068106779
 N         -4.9006460073        0.5285696706        0.5067615622
 C         -6.1079017627       -0.1118433473       -0.0708286804
 C         -5.5998298010       -0.7373920564       -1.3601001000
 C         -4.2447963387       -1.2942702965       -0.9275596747
 C         -3.7035902410       -0.2059074006        0.0149866967
 C         -2.8607993794        0.8384797424       -0.7438488999
 O         -3.3709601406        1.9460778508       -0.9397215616
 N         -1.6550051004        0.4971345725       -1.1772790762
 C         -0.9489863160       -0.7349615122       -0.8896573496
 C          0.2725813969       -0.4387447836       -0.0158062160
 C          1.1785736555        0.5778546962       -0.7230999926
 C          0.3757946657        1.8432886702       -1.0225600144
 C         -0.8370561041        1.4733788823       -1.8766497607
 N          2.3576776607        0.8436442758        0.0721330950
 C          2.6142483068        1.8778131966        0.9224748202
 N          3.7627376754        1.8031953205        1.5249734407
 C          4.3336110914        0.6387364517        1.0664433771
 C          3.4491497637        0.0231752049        0.1510067332
 C          3.8231221395       -1.1845352198       -0.4404033153
 C          3.3101599163       -2.1387655240       -1.3562123076
 C          4.2557832989       -3.1161084731       -1.4740012633
 N          5.3288633788       -2.8301095579       -0.6835601321
 C          5.1013341297       -1.6575461051       -0.0358367214
 N          5.9495581995       -1.0839875233        0.8245172260
 C          5.5671344754        0.0516049940        1.3692420513
 H         -3.1446640210       -0.6149060000        0.8534705989
 H          6.1613776216       -3.3862102240       -0.5857319554
 H         -5.9584957041        1.2458261797        2.1373983808
 H         -4.7712199944        1.4601676957        0.0331250928
 H         -6.4657047032       -0.8835954743        0.6098094503
 H         -6.8923983531        0.6260615289       -0.2223538104
 H         -5.4724290981        0.0222573299       -2.1316828498
 H         -6.2664887351       -1.5072386485       -1.7367782121
 H         -4.3778773636       -2.2285583230       -0.3837467677
 H         -3.5886376524       -1.4730294056       -1.7747378496
 H         -1.5946124803       -1.4553129543       -0.3965095337
 H         -0.6166929020       -1.1632086783       -1.8398486420
 H         -0.0396138424       -0.0257761629        0.9451712031
 H          0.8228938979       -1.3606554167        0.1711066930
 H          1.5342218547        0.1481475876       -1.6674465469
 H          0.0279939911        2.2968681629       -0.0935499234
 H          0.9903336585        2.5702053772       -1.5526190015
 H         -0.5124008004        1.0430734696       -2.8273712143
 H         -1.4474847824        2.3551590347       -2.0735042481
 H          1.9358321394        2.6920879775        1.0750365388
 H          2.3695015614       -2.1125121840       -1.8667664048
 H          4.2376567395       -4.0050169594       -2.0726042907
 H          6.2538882521        0.5127567662        2.0634827814
 H         -3.8584764680       -0.8668019426        2.8371914897
 H         -5.1605191282       -0.2499307726        3.8285376815
 H         -5.5372391065       -1.2605495456        2.4489553522
 H         -4.0379213247        2.0939800090        3.4021210017
 H         -2.9034377511        1.3675127860        2.2760873135
 H         -3.9479410139        2.6897945307        1.7500046982
  57
        -81.18139568
 C         -4.0175432404        2.1077946520       -1.8985985953
 C         -5.1482734215        1.9493232789       -0.8900500640
 C         -5.1897213863        3.1220953702        0.0820771976
 N         -5.0160985339        0.6320511156       -0.1963209638
 C         -6.2382157328        0.1788118646        0.5119907871
 C         -5.7140106508       -0.8330645928        1.5183357418
 C         -4.4323182351       -0.1590308469        2.0045113995
 C         -3.8573528248        0.4675447078        0.7226632468
 C         -2.8909246748       -0.4928903248        0.0008765950
 O         -3.2991576321       -1.0411458222       -1.0278045170
 N         -1.6920285782       -0.7099109360        0.5241511975
 C         -1.1103426949       -0.0319116205        1.6652024566
 C          0.0725856499        0.8255759371        1.2037437479
 C          1.1084545859       -0.0733827847        0.5298344725
 C          0.4504228134       -0.8026798888       -0.6490816729
 C         -0.7581583196       -1.5936480085       -0.1522960944
 N          2.2737015797        0.6593673133        0.0845616188
 C          2.3953561905        1.9780418450       -0.2389784906
 N          3.5749264682        2.3195216733       -0.6625450684
 C          4.3134949176        1.1595239607       -0.6398441319
 C          3.4960751435        0.1035493177       -0.1742900479
 C          4.0412037384       -1.1774103695       -0.0739885541
 C          3.6490950396       -2.4870759604        0.3046383831
 C          4.7436202351       -3.2861600317        0.1413496706
 N          5.7970532990       -2.5528598848       -0.3177432842
 C          5.4060055884       -1.2596647233       -0.4632007829
 N          6.1914822262       -0.2697325544       -0.9008462094
 C          5.6483989018        0.9261176924       -0.9880857310
 H         -3.3819504610        1.4292742449        0.9010659332
 H          6.7186902542       -2.8992218707       -0.5236406116
 H         -6.0993016185        1.8979352977       -1.4279322759
 H         -4.7865389864       -0.0823551453       -0.9351911952
 H         -6.6904937369        1.0259825223        1.0264341922
 H         -6.9533483091       -0.2369114923       -0.1941048188
 H         -5.4859825500       -1.7796947673        1.0279306568
 H         -6.4187763976       -1.0193068743        2.3231138423
 H         -4.6679408155        0.6195113906        2.7288603715
 H         -3.7483845884       -0.8679269718        2.4626473519
 H         -1.8439328256        0.5881183685        2.1715319941
 H         -0.7561167130       -0.7915790787        2.3679347944
 H         -0.2810440978        1.5732265673        0.4930950468
 H          0.5130536474        1.3363985121        2.0592191055
 H          1.4684665184       -0.8139760767        1.2541482685
 H          0.1366901271       -0.0725142387       -1.3977417144
 H          1.1637349824       -1.4804720099       -1.1176433509
 H         -0.4361542213       -2.3659027214        0.5513586032
 H         -1.2748830002       -2.0664689771       -0.9878971049
 H          1.5944683766        2.6816094506       -0.1413756915
 H          2.6869594421       -2.8056947912        0.6500560750
 H          4.8452640019       -4.3377233663        0.3224416417
 H          6.2847249782        1.7232714843       -1.3429529373
 H         -4.2108905602        3.3411839516        0.4988576039
 H         -5.5151523468        4.0066902493       -0.4574773924
 H         -5.8905946689        2.9588488170        0.8944534721
 H         -3.9636816542        1.2532918578       -2.5693599194
 H         -4.1878615914        2.9962473488       -2.4990424362
 H         -3.0558249112        2.2192732543       -1.4044955947
  57
        -81.18136248
 C         -5.8267033614        0.7897357598        1.7201455873
 C         -6.1003563007        0.1251778268        0.3773092286
 C         -6.2520618283       -1.3836877731        0.5279943200
 N         -5.0267865584        0.4992115410       -0.5932904220
 C         -5.3777428078        0.2701505002       -2.0165724121
 C         -4.0281098913        0.1982381564       -2.7124584056
 C         -3.2010782894       -0.6061807657       -1.7116238383
 C         -3.6704720363       -0.0642930900       -0.3510134581
 C         -2.8095158825        1.1219028693        0.1280077138
 O         -3.3061715101        2.2502353945        0.0491538357
 N         -1.5977038547        0.8864240622        0.6122085382
 C         -0.7687493968        1.9969128898        1.0500676639
 C          0.5125570934        2.0552860857        0.2197439639
 C          1.2641324121        0.7345685337        0.3769818227
 C          0.3548878110       -0.4141954895       -0.0776853245
 C         -0.9430193750       -0.4008125174        0.7335386139
 N          2.5115903367        0.7131465728       -0.3552506716
 C          2.8887665233        1.4394195621       -1.4454912342
 N          4.0729889215        1.1527793964       -1.8961603933
 C          4.5414135904        0.1592943488       -1.0679286215
 C          3.5579132163       -0.1278442788       -0.0935444903
 C          3.8183082949       -1.1155030667        0.8576778498
 C          3.1856825540       -1.7364716802        1.9651569200
 C          4.0639450276       -2.6626630021        2.4489757458
 N          5.2073908837       -2.6593577280        1.7069650797
 C          5.0947178569       -1.7272048964        0.7247388684
 N          6.0351414434       -1.4637970018       -0.1890143432
 C          5.7587024559       -0.5308779787       -1.0754447761
 H         -3.7165564884       -0.8345212732        0.4155223984
 H          6.0134075171       -3.2433358750        1.8528608231
 H         -7.0230742806        0.5368724438       -0.0417744454
 H         -4.8409617052        1.5279379240       -0.4666883016
 H         -5.9029662171       -0.6799731662       -2.1083314565
 H         -6.0160751993        1.0708208229       -2.3830096148
 H         -3.6090602618        1.1965143479       -2.8412177608
 H         -4.0887446646       -0.2810550373       -3.6850172991
 H         -3.4362421705       -1.6664625851       -1.7939503041
 H         -2.1344456076       -0.4740708985       -1.8667938990
 H         -1.3414636726        2.9176384210        0.9349393296
 H         -0.5249076757        1.8587407688        2.1070536864
 H          0.2513034973        2.2167649905       -0.8267588671
 H          1.1279875150        2.8895716292        0.5548340457
 H          1.5244641583        0.5942237788        1.4331259278
 H          0.1432794621       -0.2944338874       -1.1417388429
 H          0.8617680177       -1.3688568455        0.0619793148
 H         -0.7044981996       -0.5594171239        1.7899806304
 H         -1.5902148733       -1.2047768407        0.3961008513
 H          2.2700317613        2.1924156998       -1.8891037114
 H          2.2122601867       -1.5298767485        2.3599611886
 H          3.9513753454       -3.3311674540        3.2791959321
 H          6.5195076806       -0.3209097016       -1.8125579777
 H         -7.1910817752       -1.5882783443        1.0337694562
 H         -6.2794457157       -1.8924196699       -0.4303754018
 H         -5.4596253552       -1.8135071604        1.1339202928
 H         -5.6957216901        1.8636428980        1.6094231241
 H         -6.6671887643        0.6206505664        2.3862833448
 H         -4.9375306198        0.3813920688        2.1932899555
  57
        -81.18134551
 C         -5.9009982675       -0.1134149347       -1.4984174755
 C         -6.2087943575        0.5440241413       -0.1593203170
 C         -6.4542466183        2.0392702609       -0.3215146299
 N         -5.1094791926        0.2446692263        0.8082288629
 C         -5.4616920469        0.4703115649        2.2316228398
 C         -4.1124814626        0.6242216481        2.9150115106
 C         -3.3393912691        1.4622686509        1.8987490088
 C         -3.7896616048        0.8816024405        0.5477223160
 C         -2.8681795723       -0.2590062633        0.0701851360
 O         -3.2988462564       -1.4126962620        0.1680010660
 N         -1.6785611491        0.0393678060       -0.4339371114
 C         -0.7966108865       -1.0268973985       -0.8778800692
 C          0.5130825974       -0.9956819861       -0.0943514899
 C          1.1713342401        0.3804562797       -0.2555702296
 C          0.1993618732        1.4544578682        0.2295273226
 C         -1.0998417925        1.3605662258       -0.5767953657
 N          2.4389245971        0.4224718598        0.4399770281
 C          2.7335872570        0.9114785581        1.6779176117
 N          3.9713357326        0.7492766637        2.0374203531
 C          4.5683273264        0.0971525557        0.9837275998
 C          3.6043331366       -0.1186265107       -0.0281097652
 C          3.9899440185       -0.7730908677       -1.1989814481
 C          3.4235980734       -1.2082478148       -2.4246032071
 C          4.4277906453       -1.8065677085       -3.1293442935
 N          5.5887740955       -1.7717327005       -2.4157808575
 C          5.3604744043       -1.1494326495       -1.2295151738
 N          6.2835384423       -0.9483712512       -0.2828205260
 C          5.8888523675       -0.3322192945        0.8114151881
 H         -3.8868878077        1.6406997275       -0.2250815277
 H          6.4767527476       -2.1449712213       -2.7056968971
 H         -7.1023543838        0.0798080172        0.2679452452
 H         -4.8658173969       -0.7732371201        0.6924396108
 H         -6.0377302042        1.3910432581        2.3175687232
 H         -6.0518908525       -0.3601558926        2.6121955587
 H         -3.6376832068       -0.3479380550        3.0503058867
 H         -4.1917420657        1.1098769959        3.8830769967
 H         -3.6313654938        2.5089315276        1.9728845964
 H         -2.2659991826        1.3894966278        2.0455212017
 H         -1.3085533620       -1.9785786602       -0.7325119065
 H         -0.5946052060       -0.8914136307       -1.9443271232
 H          0.3228407587       -1.1854209408        0.9637174508
 H          1.1773924118       -1.7770475723       -0.4631362494
 H          1.3966898615        0.5487789882       -1.3156159591
 H         -0.0164680456        1.2982468781        1.2868251910
 H          0.6351857245        2.4452730706        0.1060454431
 H         -0.8780067008        1.5218486651       -1.6362587786
 H         -1.7899672239        2.1291059990       -0.2417940181
 H          2.0142678208        1.4018644338        2.3010011726
 H          2.4088596007       -1.1005710184       -2.7489648357
 H          4.3941853311       -2.2596489745       -4.1001438401
 H          6.6364750576       -0.1725137285        1.5741459636
 H         -6.5142543448        2.5526489209        0.6328586573
 H         -5.6898180366        2.5132494955       -0.9304513638
 H         -7.4038413737        2.1808406862       -0.8291179703
 H         -5.0447225126        0.3491086500       -1.9823271423
 H         -5.6972583151       -1.1750792332       -1.3794388936
 H         -6.7557163778       -0.0071862164       -2.1594166590
  57
        -81.18133331
 C         -6.4126489766       -1.2322063736        0.7158495978
 C         -5.9486506770        0.2177054737        0.6669428116
 C         -7.1231748059        1.1744247584        0.5140216777
 N         -4.9691681185        0.4614049897       -0.4348573367
 C         -5.3926635285        0.0749428495       -1.8008429759
 C         -4.0779736324       -0.0058978479       -2.5604768908
 C         -3.1690562369       -0.6995845908       -1.5467758483
 C         -3.6069898756       -0.0929778613       -0.2018419441
 C         -2.7375202636        1.1135999718        0.2067022223
 O         -3.2384075044        2.2369199190        0.0895418457
 N         -1.5153822037        0.8993740403        0.6737024607
 C         -0.6780730396        2.0271826304        1.0471355636
 C          0.5828316787        2.0546029618        0.1845394563
 C          1.3401956553        0.7415225228        0.3738881570
 C          0.4218802181       -0.4239865681       -0.0150247401
 C         -0.8550766799       -0.3815774323        0.8277177255
 N          2.5697350849        0.6930128920       -0.3867601646
 C          2.9240245912        1.3842492928       -1.5070748771
 N          4.0965146626        1.0791618354       -1.9759568098
 C          4.5804887258        0.1091742319       -1.1289275110
 C          3.6189942488       -0.1439387867       -0.1236878910
 C          3.8976892750       -1.1036108781        0.8507173926
 C          3.2886782227       -1.6881043028        1.9908006916
 C          4.1738268667       -2.6042941172        2.4811282297
 N          5.2994909784       -2.6287936661        1.7127973860
 C          5.1678832479       -1.7255895652        0.7062337007
 N          6.0877970070       -1.4940317716       -0.2365213432
 C          5.7945364130       -0.5866272670       -1.1437999448
 H         -3.6361498294       -0.8249550789        0.6043739459
 H          6.1058529950       -3.2128591933        1.8562550961
 H         -5.4172747955        0.4632389690        1.5919417006
 H         -4.7745665447        1.4949221190       -0.4315878461
 H         -5.8659335612       -0.9046570410       -1.7640890065
 H         -6.0852663273        0.8058170885       -2.2097721045
 H         -3.7046700598        0.9924293621       -2.7903528899
 H         -4.1692128868       -0.5638561869       -3.4876837187
 H         -3.3497521828       -1.7735601430       -1.5525625174
 H         -2.1183397821       -0.5239822320       -1.7584043095
 H         -1.2552538841        2.9421062740        0.9099571597
 H         -0.4084266026        1.9305413058        2.1024118423
 H          0.2963286484        2.1759769599       -0.8607870592
 H          1.2046551598        2.9014826052        0.4729927395
 H          1.6256742421        0.6414094426        1.4281826780
 H          0.1831009820       -0.3441353404       -1.0770211140
 H          0.9336387814       -1.3724092002        0.1470982749
 H         -0.5903173738       -0.4995672364        1.8831284630
 H         -1.5089843706       -1.1982691284        0.5373149505
 H          2.2976102188        2.1258861771       -1.9589435673
 H          2.3259450548       -1.4645719502        2.4022213735
 H          4.0777166569       -3.2473300365        3.3332153509
 H          6.5388847384       -0.4025789066       -1.9042541286
 H         -7.7834287491        1.0743127809        1.3702461607
 H         -6.7834358251        2.2066576701        0.4737183973
 H         -7.7004634649        0.9534005258       -0.3789419402
 H         -7.1437944853       -1.4417611195       -0.0592715481
 H         -5.5865127987       -1.9311047290        0.6241500769
 H         -6.8936332082       -1.4127567179        1.6727263328
  57
        -81.18132509
 C         -6.6003327836        1.9279398839       -0.4614744171
 C         -6.0583094698        0.5046451543       -0.4564354553
 C         -7.1789905573       -0.5188458295       -0.3344516681
 N         -5.0666977405        0.2802816773        0.6386971691
 C         -5.5074888694        0.6032883848        2.0153143076
 C         -4.1973138408        0.7183786161        2.7782335364
 C         -3.3212976086        1.4866005638        1.7893727436
 C         -3.7357270070        0.9118639802        0.4229592469
 C         -2.8094206610       -0.2314666970       -0.0391711281
 O         -3.2507293843       -1.3827370141        0.0385159712
 N         -1.6059353681        0.0636045636       -0.5107190454
 C         -0.7228873519       -1.0035307873       -0.9507383974
 C          0.5683715630       -0.9983616233       -0.1366772394
 C          1.2412384065        0.3749108670       -0.2555615017
 C          0.2666621696        1.4481046924        0.2263831380
 C         -1.0119303912        1.3817517998       -0.6148097710
 N          2.4926094787        0.3933651817        0.4694319111
 C          2.7562756384        0.8331448901        1.7326075383
 N          3.9864376905        0.6624842527        2.1134926617
 C          4.6109808435        0.0567438904        1.0480274708
 C          3.6711114612       -0.1235806275        0.0069831365
 C          4.0861144953       -0.7303774455       -1.1793826891
 C          3.5490245989       -1.1222376022       -2.4324759349
 C          4.5726798172       -1.6850194780       -3.1384569707
 N          5.7183739280       -1.6685070357       -2.3999825636
 C          5.4599745484       -1.0953663481       -1.1952770930
 N          6.3610468415       -0.9255075610       -0.2216778700
 C          5.9378932006       -0.3575521229        0.8879206977
 H         -3.8076331827        1.6732175805       -0.3528009081
 H          6.6154738705       -2.0226043047       -2.6858220416
 H         -5.5145679764        0.3168442216       -1.3878198574
 H         -4.8190417322       -0.7410375387        0.6036377380
 H         -6.0242518935        1.5613982930        2.0092732763
 H         -6.1664348859       -0.1707173634        2.3996681490
 H         -3.7788811522       -0.2692022873        2.9744114424
 H         -4.3133612448        1.2398625406        3.7237058945
 H         -3.5470422049        2.5510482700        1.8346112512
 H         -2.2637566655        1.3471724019        1.9935556777
 H         -1.2467808681       -1.9525782094       -0.8332807277
 H         -0.4946958890       -0.8520644276       -2.0097096496
 H          0.3522426087       -1.2074103898        0.9127442949
 H          1.2347712477       -1.7778069681       -0.5059098439
 H          1.4929982570        0.5617856246       -1.3063364723
 H          0.0218854460        1.2739259146        1.2744464035
 H          0.7141180069        2.4370591794        0.1335228499
 H         -0.7617864088        1.5605027823       -1.6650001904
 H         -1.7036035412        2.1502050753       -0.2830646255
 H          2.0197906795        1.2938824312        2.3582610155
 H          2.5400661762       -1.0112340394       -2.7733223273
 H          4.5629486338       -2.1006586246       -4.1263848021
 H          6.6675537413       -0.2239549436        1.6727152677
 H         -7.7674935738       -0.3568109089        0.5638555533
 H         -7.8437424960       -0.4290900125       -1.1883566954
 H         -6.7833244563       -1.5317598999       -0.3249388068
 H         -5.8128475377        2.6678221993       -0.3526742367
 H         -7.0950697335        2.1093976812       -1.4111496429
 H         -7.3379307335        2.0749386657        0.3218825369
  57
        -81.18131377
 C         -6.6004824709        1.9516510911       -0.4007258397
 C         -6.0612382559        0.5280346088       -0.4486235774
 C         -7.1833413723       -0.4969085923       -0.3560261406
 N         -5.0638274537        0.2640137029        0.6322450794
 C         -5.4982671702        0.5366624374        2.0219803319
 C         -4.1846290445        0.6323192526        2.7816574145
 C         -3.3180143621        1.4380739944        1.8148083174
 C         -3.7340729788        0.9035967865        0.4328219835
 C         -2.8064412429       -0.2244826131       -0.0630362275
 O         -3.2463946026       -1.3780903617       -0.0192690676
 N         -1.6024277559        0.0854496918       -0.5235442733
 C         -0.7150011183       -0.9680271282       -0.9870267473
 C          0.5737919783       -0.9781132900       -0.1690024605
 C          1.2436688062        0.3991135575       -0.2551811432
 C          0.2651522292        1.4581445700        0.2492695910
 C         -1.0121889440        1.4074709643       -0.5948707419
 N          2.4931617395        0.4039818723        0.4734420681
 C          2.7575027881        0.8347867851        1.7395882243
 N          3.9854189338        0.6522254080        2.1222097235
 C          4.6074259764        0.0469273053        1.0550794807
 C          3.6688248401       -0.1191200258        0.0105048685
 C          4.0823440485       -0.7208458694       -1.1790006639
 C          3.5462468791       -1.0972615933       -2.4372554606
 C          4.5667884466       -1.6654146200       -3.1434760835
 N          5.7095572174       -1.6668287894       -2.4002577604
 C          5.4525050832       -1.0995535498       -1.1925094065
 N          6.3518811928       -0.9448771275       -0.2148223653
 C          5.9309650265       -0.3785366659        0.8964199692
 H         -3.8081027998        1.6870525430       -0.3203487814
 H          6.6040406410       -2.0281922549       -2.6852399399
 H         -5.5232714766        0.3721034210       -1.3891691696
 H         -4.8157646712       -0.7553558233        0.5599281478
 H         -6.0199975482        1.4915788062        2.0522814313
 H         -6.1510341604       -0.2537596823        2.3827910017
 H         -3.7601771177       -0.3591978925        2.9417926490
 H         -4.2981393913        1.1206977270        3.7449559700
 H         -3.5514384130        2.4988312402        1.8946064497
 H         -2.2586993358        1.3001145625        2.0104090269
 H         -1.2361744734       -1.9212491950       -0.8939548986
 H         -0.4842288373       -0.7905236994       -2.0413740132
 H          0.3548432393       -1.2108448689        0.8748230851
 H          1.2430327742       -1.7477905798       -0.5531506675
 H          1.4971331924        0.6102085538       -1.3010748927
 H          0.0196775772        1.2590957579        1.2927688380
 H          0.7095592696        2.4503643571        0.1795967601
 H         -0.7612796184        1.6119159532       -1.6401995334
 H         -1.7066928231        2.1657228796       -0.2459998380
 H          2.0235492764        1.2981895264        2.3662515947
 H          2.5401543896       -0.9718911968       -2.7815703830
 H          4.5567603129       -2.0731523127       -4.1346935395
 H          6.6597256100       -0.2555351104        1.6838042806
 H         -7.8527040720       -0.3759856415       -1.2024341098
 H         -6.7898295279       -1.5103179647       -0.3840757235
 H         -7.7663786077       -0.3651257503        0.5507397567
 H         -5.8110163895        2.6858046034       -0.2697570932
 H         -7.0995383191        2.1674037768       -1.3409120483
 H         -7.3339907712        2.0724120568        0.3909187956
  57
        -81.18131087
 C         -5.2952679926        1.7581837121        2.5769020086
 C         -4.9485647166        2.0738551103        1.1276005309
 C         -5.8925294843        3.1154488077        0.5424375009
 N         -4.9640038266        0.8550875924        0.2634402683
 C         -6.2135976288        0.0585976310        0.2595771467
 C         -5.7629991571       -1.2925773212       -0.2728686407
 C         -4.4341615010       -1.4920909073        0.4544906930
 C         -3.8231647456       -0.0796890301        0.4674242062
 C         -2.8821087282        0.1527022748       -0.7323189712
 O         -3.2925549483        0.8815841099       -1.6414083527
 N         -1.7055269062       -0.4575561824       -0.7525670579
 C         -1.1178120815       -1.2426046752        0.3142461135
 C          0.1204524951       -0.5268072707        0.8610867523
 C          1.1231651017       -0.2943009810       -0.2739004866
 C          0.4496035515        0.4942495365       -1.4028777880
 C         -0.8014536736       -0.2471447563       -1.8703006232
 N          2.3054858024        0.3884145907        0.2005821884
 C          2.3588244734        1.6051590080        0.8145356601
 N          3.5570416776        2.0002234941        1.1197178535
 C          4.3857252701        0.9927080379        0.6837621124
 C          3.6023959027       -0.0307225591        0.0981454693
 C          4.2467661626       -1.1580405899       -0.4166634647
 C          3.9298748488       -2.3797920346       -1.0651823022
 C          5.1119491918       -3.0244125544       -1.2891012130
 N          6.1504549754       -2.2784075600       -0.8183524827
 C          5.6620984640       -1.1307597663       -0.2795309867
 N          6.4129582916       -0.1706030707        0.2703157927
 C          5.7785447649        0.8793793770        0.7466178549
 H         -3.3123902906        0.1540282033        1.4007546641
 H          7.1254850780       -2.5228117119       -0.8577284037
 H         -3.9260611027        2.4608183275        1.0725470049
 H         -4.7847806619        1.1875394401       -0.7183328962
 H         -6.5756563749       -0.0421355687        1.2811968534
 H         -6.9710049124        0.5361818358       -0.3563102619
 H         -5.6064182055       -1.2488578033       -1.3509664244
 H         -6.4779612568       -2.0809778810       -0.0575308305
 H         -4.6114516178       -1.8350245545        1.4729218183
 H         -3.7988417591       -2.2137738377       -0.0512690106
 H         -1.8299876988       -1.4157640594        1.1153043032
 H         -0.8215913372       -2.2102628022       -0.1009641751
 H         -0.1665737747        0.4315256161        1.2949641275
 H          0.5779807618       -1.1330252338        1.6424968353
 H          1.4598052427       -1.2598390838       -0.6609259729
 H          0.1773097194        1.4889476116       -1.0464476701
 H          1.1374933034        0.6126418034       -2.2399867196
 H         -0.5264483252       -1.2204285271       -2.2850122050
 H         -1.3251186623        0.3303824887       -2.6327313491
 H          1.4851054131        2.1876557272        1.0271748079
 H          2.9616494198       -2.7462042605       -1.3391758180
 H          5.2851513775       -3.9734557935       -1.7562357229
 H          6.3860759388        1.6540241373        1.1903095951
 H         -6.9268418940        2.7894894852        0.6005020011
 H         -5.8028955287        4.0398412199        1.1051614675
 H         -5.6432823054        3.3304323724       -0.4939976143
 H         -6.3630602056        1.6091251615        2.7067261570
 H         -4.7667808849        0.8836550858        2.9448293527
 H         -5.0084382438        2.6028323839        3.1965950750
  57
        -81.18120876
 C         -6.0675352781       -1.0552126428        0.5937751963
 C         -6.2562471161        0.3160979437       -0.0417109957
 C         -6.4941541167        0.2017298860       -1.5426255468
 N         -5.0856232495        1.1848500886        0.2886485057
 C         -5.3196025561        2.6364111332        0.0905755835
 C         -3.9178771153        3.2115154800       -0.0336965127
 C         -3.2201021519        2.1548987233       -0.8878149538
 C         -3.7842552769        0.8323992690       -0.3419687426
 C         -2.9155889959        0.2594189465        0.7959795319
 O         -3.3493026096        0.3664049819        1.9477702486
 N         -1.7654171038       -0.3285978609        0.4969148321
 C         -0.9289195914       -0.8593029037        1.5599655018
 C          0.4279341325       -0.1588215764        1.5650981981
 C          1.0961883694       -0.3353953016        0.1978634555
 C          0.1710451826        0.2079145691       -0.8960720629
 C         -1.1879049351       -0.4930859878       -0.8220174811
 N          2.3877802035        0.3116801305        0.1555809736
 C          2.6495457609        1.6353982969        0.3547176312
 N          3.9039299299        1.9547619861        0.2571298277
 C          4.5505963885        0.7746259553       -0.0277284744
 C          3.5987225822       -0.2709583988       -0.0938359916
 C          4.0414051849       -1.5654081592       -0.3757556370
 C          3.5160242080       -2.8731056117       -0.5416420645
 C          4.5743483830       -3.6907065297       -0.8143669333
 N          5.7316255942       -2.9715177359       -0.8302895512
 C          5.4469131725       -1.6695148435       -0.5662435187
 N          6.3558649425       -0.6905636691       -0.5063915394
 C          5.9093524783        0.5183942001       -0.2397958810
 H         -3.9349648976        0.0863153758       -1.1188631610
 H          6.6544432944       -3.3316314636       -1.0051186869
 H         -7.1179418420        0.8065817335        0.4201769061
 H         -4.8626672923        1.0283926653        1.3058512152
 H         -5.8752536854        2.7877421429       -0.8342945332
 H         -5.8877096069        3.0459644411        0.9226333806
 H         -3.4455732218        3.2855981268        0.9463073712
 H         -3.9126022212        4.1935719173       -0.4971829199
 H         -3.4938591898        2.2755657751       -1.9350796418
 H         -2.1390642633        2.2122726327       -0.8027109861
 H         -1.4426024510       -0.7063947141        2.5095660550
 H         -0.7937135258       -1.9322277834        1.3971350609
 H          0.2941491638        0.9024045539        1.7790896664
 H          1.0544950840       -0.5848916063        2.3484188211
 H          1.2794205904       -1.3989370755        0.0230427264
 H          0.0498721539        1.2834271410       -0.7607646812
 H          0.6143862979        0.0372740024       -1.8769163676
 H         -1.0468411674       -1.5639917535       -0.9983480743
 H         -1.8433237198       -0.0945636053       -1.5906341729
 H          1.8845728179        2.3523389763        0.5755717808
 H          2.4939340066       -3.1845039303       -0.4700855918
 H          4.5813086557       -4.7462582896       -1.0004540070
 H          6.6444388593        1.3079601569       -0.1920290478
 H         -5.7789849811       -0.4633059689       -2.0181757052
 H         -7.4822028061       -0.2185944437       -1.7054157701
 H         -6.4636211381        1.1665187375       -2.0388495474
 H         -5.2451951988       -1.5976466799        0.1346312969
 H         -5.8725051125       -0.9724299983        1.6605122813
 H         -6.9705793018       -1.6433058907        0.4618598951
  57
        -81.18118370
 C         -6.7465560147       -0.9646372564       -0.2843705984
 C         -6.1212912925        0.1678575272        0.5197468390
 C         -7.1726307921        1.1623908801        0.9929166921
 N         -5.0683715528        0.8951115576       -0.2515780108
 C         -5.4688434015        1.4478334221       -1.5665785078
 C         -4.1386656215        1.6671356496       -2.2698248055
 C         -3.3697559350        0.4017589569       -1.8928040278
 C         -3.7921876401        0.1500512615       -0.4347321217
 C         -2.8064206622        0.7706022081        0.5764651549
 O         -3.1688123801        1.7965074155        1.1620448104
 N         -1.6378238734        0.1803037160        0.7842052440
 C         -0.6904459954        0.7631614687        1.7193596758
 C          0.5990994347        1.1448820475        0.9960588432
 C          1.1881061924       -0.0944702727        0.3145231360
 C          0.1482437321       -0.6989418397       -0.6348784516
 C         -1.1374813005       -1.0142719056        0.1339379202
 N          2.4096757615        0.2249218008       -0.3888154992
 C          2.5599316645        1.1253967207       -1.4023161807
 N          3.7707151133        1.2204294723       -1.8603086126
 C          4.5043612281        0.3272926766       -1.1148381497
 C          3.6512273888       -0.3072686642       -0.1803188544
 C          4.1937447420       -1.2609932699        0.6840931323
 C          3.7830083107       -2.1250558579        1.7320761651
 C          4.8934999284       -2.8070812652        2.1378769804
 N          5.9755949522       -2.4210976375        1.4051904146
 C          5.5881187004       -1.4781059764        0.5072023423
 N          6.4041629946       -0.8854950699       -0.3707480512
 C          5.8649680872        0.0078397803       -1.1727000669
 H         -3.9424227393       -0.9056954999       -0.2124517778
 H          6.9151969058       -2.7672489103        1.5015665752
 H         -5.6112348100       -0.2441929800        1.3963156794
 H         -4.7552009665        1.6931618491        0.3579056586
 H         -6.0584452301        0.7053377607       -2.1013808517
 H         -6.0472754647        2.3591262600       -1.4399786674
 H         -3.6374079922        2.5520967447       -1.8767292319
 H         -4.2520271267        1.7810297796       -3.3438565407
 H         -3.6805101579       -0.4295182547       -2.5240979986
 H         -2.2968509703        0.5335268869       -1.9967050409
 H         -1.1504526121        1.6425823329        2.1710446415
 H         -0.4761101050        0.0310160819        2.5027622670
 H          0.3895108069        1.9138598598        0.2513529518
 H          1.3110122532        1.5540175417        1.7126522433
 H          1.4550432986       -0.8309038889        1.0771823083
 H         -0.0559498796        0.0089892662       -1.4390862937
 H          0.5383750418       -1.6141689432       -1.0795995137
 H         -0.9175244739       -1.7542625027        0.9095270402
 H         -1.8747256499       -1.4291610991       -0.5468500211
 H          1.7474659006        1.7080667545       -1.7874600144
 H          2.8007861849       -2.2376057331        2.1436171975
 H          4.9869881924       -3.5478338885        2.9069179915
 H          6.5243523829        0.4852947216       -1.8821640328
 H         -7.7272585045        1.5798636052        0.1576661160
 H         -7.8804520819        0.6567659043        1.6428370327
 H         -6.7180907307        1.9711919395        1.5601046527
 H         -7.2905355527       -1.6153388107        0.3940310343
 H         -7.4581670073       -0.5887930201       -1.0135216195
 H         -6.0004881838       -1.5676516286       -0.7934375193
  57
        -81.18113043
 C         -6.5933503320       -1.1664360588        0.3788844337
 C         -6.0414566227        0.2279064845        0.6455526899
 C         -7.1550915184        1.2632851409        0.7229450857
 N         -5.0482163093        0.6502842150       -0.3877324241
 C         -5.4941040537        0.6033631014       -1.7997138646
 C         -4.1862798098        0.6136816616       -2.5753088700
 C         -3.3236577905       -0.3427535446       -1.7530791973
 C         -3.7234020592       -0.0240072090       -0.3015195125
 C         -2.7799200607        1.0069920230        0.3506348871
 O         -3.2086692564        2.1574607745        0.4886111811
 N         -1.5742768701        0.6206448860        0.7438624048
 C         -0.6677132153        1.5860222419        1.3425664701
 C          0.5891409002        1.7267218273        0.4860328134
 C          1.2638339440        0.3590765883        0.3626820232
 C          0.2735199155       -0.6415349300       -0.2445910654
 C         -0.9963089838       -0.7014481508        0.6082061251
 N          2.4781070480        0.4188545725       -0.4196509989
 C          2.6936152797        1.0895642686       -1.5874052017
 N          3.8840096257        0.9350082494       -2.0823709421
 C          4.5300559102        0.0964745024       -1.2040694614
 C          3.6452220066       -0.2415162629       -0.1531450827
 C          4.0909785954       -1.1039441825        0.8505208874
 C          3.6083718850       -1.7232131720        2.0323382598
 C          4.6342992848       -2.4738213822        2.5294114619
 N          5.7302041287       -2.3618940042        1.7271182160
 C          5.4361887397       -1.5359042340        0.6891965103
 N          6.2856357362       -1.2161065805       -0.2928756007
 C          5.8339606638       -0.4099215323       -1.2300032789
 H         -3.7986189766       -0.9131635672        0.3232035562
 H          6.6183742843       -2.8133343751        1.8659380869
 H         -5.4965620011        0.2302451760        1.5949789163
 H         -4.7898011925        1.6436665069       -0.1586228490
 H         -6.0275570781       -0.3292019422       -1.9750556178
 H         -6.1395194476        1.4476171414       -2.0271057191
 H         -3.7512346567        1.6134871752       -2.5817036791
 H         -4.3111962956        0.2833304406       -3.6022302957
 H         -3.5717316498       -1.3753645536       -1.9945025914
 H         -2.2637365831       -0.1897428477       -1.9340658985
 H         -1.1874104066        2.5414584364        1.4206306926
 H         -0.4010766437        1.2421965689        2.3456990001
 H          0.3121779455        2.1020176234       -0.4994137053
 H          1.2674945371        2.4447834422        0.9457979577
 H          1.5602587088        0.0189672789        1.3597822735
 H          0.0364338608       -0.3299117538       -1.2632355450
 H          0.7267890768       -1.6318187842       -0.2892201092
 H         -0.7366585754       -1.0606576708        1.6088262898
 H         -1.7017618513       -1.3943551839        0.1595673490
 H          1.9474173406        1.6983828522       -2.0562454361
 H          2.6330101831       -1.6369064680        2.4656411793
 H          4.6583250067       -3.0864939334        3.4085583225
 H          6.5198465431       -0.1551532089       -2.0242551490
 H         -6.7527045390        2.2566003910        0.9072411992
 H         -7.7442994869        1.2802676166       -0.1892277311
 H         -7.8207230607        1.0158844606        1.5443969376
 H         -7.0862949350       -1.5244871162        1.2779892019
 H         -7.3344527409       -1.1554550393       -0.4148182486
 H         -5.8112856200       -1.8762028200        0.1258446991
  57
        -81.18110113
 C         -6.5865541165        1.7121496972       -0.9921321773
 C         -6.1162211011        0.3833380353       -0.4150416918
 C         -7.2798938582       -0.4268237778        0.1397369746
 N         -5.0881678291        0.5631392146        0.6542433098
 C         -5.4535961755        1.4431138528        1.7887055133
 C         -4.1072831319        1.7922444218        2.4031527169
 C         -3.2486549865        2.0396516103        1.1636631497
 C         -3.7402604736        0.9715252899        0.1709348019
 C         -2.8822820752       -0.3094735481        0.2170335319
 O         -3.3713624373       -1.2973899671        0.7749674923
 N         -1.6826694144       -0.3035313593       -0.3473152523
 C         -0.8588986248       -1.4999377552       -0.3025734320
 C          0.4538856178       -1.2161788650        0.4233675197
 C          1.1820666052       -0.0588626242       -0.2700407487
 C          0.2678428825        1.1677692102       -0.2986982912
 C         -1.0394714119        0.8122089605       -1.0125027504
 N          2.4436711094        0.2200332749        0.3781536994
 C          2.6549343808        0.8827562289        1.5513045917
 N          3.8996998313        0.9461275969        1.9148032508
 C          4.5924240246        0.2740738745        0.9348375749
 C          3.6778625577       -0.1966331502       -0.0369287386
 C          4.1667249525       -0.9249475876       -1.1235827759
 C          3.6847671871       -1.5881615815       -2.2816829262
 C          4.7736842682       -2.1121301384       -2.9163105779
 N          5.9090776440       -1.8157973557       -2.2233616629
 C          5.5785899305       -1.0946694241       -1.1202800337
 N          6.4542284492       -0.6475146038       -0.2139620629
 C          5.9632707259        0.0279588024        0.8033011341
 H         -3.8082473927        1.3413704618       -0.8513934249
 H          6.8459421778       -2.0846422615       -2.4719437842
 H         -5.6254358091       -0.2025977552       -1.1987277948
 H         -4.8887937586       -0.3966929905        1.0349722133
 H         -5.9351212505        2.3404447000        1.4041269337
 H         -6.1220872070        0.9286613056        2.4739204653
 H         -3.7177351435        0.9516200970        2.9780454637
 H         -4.1613953958        2.6611220555        3.0523506776
 H         -3.4367650185        3.0368493260        0.7683440843
 H         -2.1885836319        1.9468144257        1.3804249011
 H         -1.4188369154       -2.2829845571        0.2095858262
 H         -0.6540444813       -1.8216554451       -1.3276028603
 H          0.2576585701       -0.9530762696        1.4643242904
 H          1.0756866280       -2.1114192146        0.4124912927
 H          1.4249060595       -0.3485952132       -1.2968167706
 H          0.0555234931        1.4893309216        0.7208644906
 H          0.7570919848        1.9888214030       -0.8216714499
 H         -0.8168787216        0.5114599631       -2.0408603935
 H         -1.6882922795        1.6826060663       -1.0344386034
 H          1.8636085051        1.3195318254        2.1258636102
 H          2.6695242890       -1.6805782193       -2.6095931558
 H          4.8172640304       -2.6817910469       -3.8231996142
 H          6.6715956406        0.3854641570        1.5358129232
 H         -6.9356339537       -1.3708592601        0.5554453718
 H         -7.8176537911        0.1252263754        0.9049726314
 H         -7.9777886168       -0.6504907817       -0.6615153923
 H         -7.1095393517        1.5220724021       -1.9248185981
 H         -7.2837406999        2.2106440990       -0.3252546753
 H         -5.7594502508        2.3820896425       -1.2076765218
  57
        -81.18098457
 C         -5.5439689803        1.3155213931       -0.5537967134
 C         -5.5482497168       -0.1014632989        0.0073509817
 C         -5.9945056023       -0.1272698742        1.4624779121
 N         -4.2035016956       -0.7299984746       -0.1907601178
 C         -4.1369820451       -2.1754108747        0.1681586752
 C         -3.2746968296       -2.2242581424        1.4219131137
 C         -2.2340690021       -1.1470976804        1.1330350251
 C         -3.0596584204       -0.0366041881        0.4637125150
 C         -2.2959571655        0.6792963163       -0.6654493874
 O         -2.6032135643        0.3888279563       -1.8264676900
 N         -1.3672695430        1.5736401760       -0.3561978923
 C         -0.6134348846        2.2325723681       -1.4085114182
 C          0.8537995388        1.8108423015       -1.3547044914
 C          1.4326777042        2.0740839122        0.0404425721
 C          0.5532921748        1.4589954330        1.1361565572
 C         -0.8956937389        1.9200144381        0.9674462009
 N          2.7875246289        1.5779049957        0.1379892802
 C          3.8842693542        2.3474420154        0.3882463061
 N          4.9998774539        1.6898922403        0.4610413453
 C          4.6494065338        0.3775726824        0.2480125293
 C          3.2505057549        0.2910663138        0.0371615937
 C          2.6978683375       -0.9729412470       -0.2032578643
 C          1.4385575013       -1.5721947676       -0.4744171607
 C          1.6519004893       -2.9145866525       -0.5971639224
 N          2.9713463632       -3.1951935407       -0.4167253745
 C          3.6417892905       -2.0374818193       -0.1815364960
 N          4.9606202681       -1.9636418066        0.0238187700
 C          5.4575662172       -0.7640741175        0.2315276321
 H         -3.4389557217        0.6752772940        1.1943997389
 H          3.4015011937       -4.1035656380       -0.4586172029
 H         -6.2396759182       -0.7067841402       -0.5862331678
 H         -3.9745181707       -0.6117904595       -1.2065198590
 H         -5.1353360354       -2.5797589358        0.3118961935
 H         -3.6502839205       -2.7170598583       -0.6425883142
 H         -2.8265556752       -3.2024511885        1.5704268695
 H         -3.8515004274       -1.9690445629        2.3090677805
 H         -1.7301261361       -0.8062063073        2.0325445816
 H         -1.4863004053       -1.5331487983        0.4400389371
 H         -1.0509234264        1.9614616761       -2.3698519966
 H         -0.6979542291        3.3135267520       -1.2690121161
 H          0.9466595871        0.7542831849       -1.6005830362
 H          1.4181949607        2.3736604664       -2.0986210531
 H          1.4927586032        3.1571378460        0.1987732898
 H          0.6119486159        0.3730787152        1.0820287343
 H          0.9225294907        1.7687380265        2.1139376884
 H         -0.9433286356        3.0085654538        1.0666447940
 H         -1.5160974801        1.4727133273        1.7378709136
 H          3.8160796629        3.4105269323        0.5137783561
 H          0.4941221702       -1.0831021225       -0.5964559300
 H          0.9490112657       -3.6965849911       -0.8043650245
 H          6.5231323810       -0.6975645902        0.3930787365
 H         -6.0419016088       -1.1380942952        1.8544462887
 H         -5.3510078659        0.4709515902        2.1004463627
 H         -6.9939083588        0.2940411717        1.5225613541
 H         -4.9769270031        1.9986973261        0.0723371621
 H         -5.1291726443        1.3392965975       -1.5589792829
 H         -6.5639679737        1.6843019258       -0.6054185053
  57
        -81.18075050
 C         -6.0294935562       -0.0564322653        1.3872355601
 C         -5.4514952192        0.1604509878       -0.0038925365
 C         -6.4190645639       -0.2766336029       -1.0955846993
 N         -4.1452098320       -0.5454778270       -0.1927772225
 C         -4.1316116788       -2.0004182237        0.1258653071
 C         -3.2767343722       -2.1145485101        1.3805537434
 C         -2.2041657241       -1.0573672206        1.1353860649
 C         -2.9998709809        0.0978338161        0.5097743783
 C         -2.2234971722        0.8695032378       -0.5739359919
 O         -2.5422282659        0.6633248531       -1.7499264544
 N         -1.2783421298        1.7250803851       -0.2100719329
 C         -0.5081742120        2.4318735233       -1.2187185576
 C          0.9459504311        1.9634816692       -1.2006487321
 C          1.5363577308        2.1057918468        0.2073782017
 C          0.6387155151        1.4468029154        1.2621567103
 C         -0.7932455602        1.9686674057        1.1314902246
 N          2.8719013517        1.5541691644        0.2635149620
 C          3.9961191127        2.2610467608        0.5701154144
 N          5.0858813960        1.5581864321        0.5937422931
 C          4.6867772989        0.2796074561        0.2839788289
 C          3.2861549177        0.2615638468        0.0681488143
 C          2.6872400388       -0.9598688741       -0.2642240924
 C          1.4069053115       -1.4902575664       -0.5774150368
 C          1.5705718671       -2.8269267089       -0.7994866539
 N          2.8783983039       -3.1688692092       -0.6416276888
 C          3.5909802665       -2.0575015598       -0.3220616924
 N          4.9112681432       -2.0483595830       -0.1126393530
 C          5.4520071005       -0.8868650706        0.1829569947
 H         -3.3817519961        0.7803559084        1.2691738461
 H          3.2748001356       -4.0870193854       -0.7506793631
 H         -5.2339383825        1.2242983532       -0.1438362301
 H         -3.8936758121       -0.4067845913       -1.2003026144
 H         -5.1414351927       -2.3741395875        0.2619269834
 H         -3.6652939977       -2.5371526612       -0.6995239601
 H         -2.8566539889       -3.1092144717        1.4982738477
 H         -3.8544608157       -1.8752928419        2.2716428029
 H         -1.6933541850       -0.7665323997        2.0483715854
 H         -1.4659965571       -1.4367953901        0.4287147489
 H         -0.9559428400        2.2402666059       -2.1943595906
 H         -0.5601182521        3.5026487562       -1.0050795854
 H          1.0062924585        0.9255585643       -1.5237728546
 H          1.5257538287        2.5619674557       -1.9037485476
 H          1.6365516154        3.1719036068        0.4417953686
 H          0.6593371244        0.3658677511        1.1323045452
 H          1.0211720155        1.6750814103        2.2571028531
 H         -0.8019716381        3.0495340888        1.2999724789
 H         -1.4291958751        1.4964865043        1.8738047530
 H          3.9674330622        3.3137308142        0.7741272405
 H          0.4815157794       -0.9585434355       -0.6620718661
 H          0.8395618617       -3.5648219705       -1.0632675687
 H          6.5190116710       -0.8705581964        0.3484438440
 H         -5.9991996906       -0.0936532403       -2.0818878898
 H         -6.6749511927       -1.3287988342       -1.0124831708
 H         -7.3380833548        0.2958900687       -1.0138421577
 H         -5.3190663056        0.1955291531        2.1686093431
 H         -6.8936982466        0.5902162650        1.5084928435
 H         -6.3642524547       -1.0789279784        1.5310225339
  57
        -81.18072769
 C         -6.5537913155       -0.5118244540       -0.6806352491
 C         -5.4831504901        0.0631187902        0.2401938891
 C         -5.2923257147        1.5423280821       -0.0760121737
 N         -4.2126513278       -0.7000225299        0.0399716448
 C         -4.2890100504       -2.1220320182        0.4947290855
 C         -3.2506659479       -2.2489423460        1.6043409666
 C         -2.1696918314       -1.2755694558        1.1527131985
 C         -2.9981572338       -0.0873192691        0.6488537938
 C         -2.2855140269        0.6797475844       -0.4765290128
 O         -2.6205100051        0.4183192574       -1.6355487607
 N         -1.3561775987        1.5744766492       -0.1655894261
 C         -0.6428572225        2.2746766859       -1.2194005091
 C          0.8265156710        1.8576630292       -1.2341818311
 C          1.4553045764        2.0753738515        0.1470761621
 C          0.6183365325        1.4197552993        1.2522513241
 C         -0.8388359206        1.8755599534        1.1521869410
 N          2.8130907245        1.5788393269        0.1781154280
 C          3.9187599450        2.3409033541        0.4109779152
 N          5.0362427572        1.6825146936        0.4186797286
 C          4.6775578512        0.3775831244        0.1759654199
 C          3.2714835126        0.2964121511        0.0175242230
 C          2.7092309950       -0.9597798148       -0.2412500698
 C          1.4396100342       -1.5513570938       -0.4797713204
 C          1.6480432067       -2.8886806222       -0.6550114247
 N          2.9738153960       -3.1733993181       -0.5379403505
 C          3.6533232674       -2.0231992622       -0.2925522826
 N          4.9794147737       -1.9544342329       -0.1381398326
 C          5.4843005772       -0.7618761490        0.0894931544
 H         -3.2992402163        0.5558881245        1.4742734025
 H          3.4019847994       -4.0792876336       -0.6273625220
 H         -5.7720463830       -0.0620995022        1.2879712620
 H         -4.0000399854       -0.6533627476       -0.9822856581
 H         -5.2890787960       -2.3529634152        0.8510722791
 H         -4.0468955109       -2.7793780427       -0.3384542207
 H         -2.8828767340       -3.2659897359        1.7028359999
 H         -3.6649050791       -1.9370051321        2.5622899045
 H         -1.4897657314       -0.9995530210        1.9531566706
 H         -1.5925229238       -1.7089922591        0.3352588416
 H         -1.1136535558        2.0359858494       -2.1735499874
 H         -0.7259288875        3.3494138866       -1.0375698513
 H          0.9131743857        0.8102705484       -1.5189608470
 H          1.3616066398        2.4478402282       -1.9785081967
 H          1.5195359116        3.1524908109        0.3402122336
 H          0.6813645302        0.3367030285        1.1589683798
 H          1.0213100698        1.6988768993        2.2260254826
 H         -0.8903792935        2.9592170112        1.2937921186
 H         -1.4260869961        1.3946813990        1.9285526934
 H          3.8555737132        3.3991677457        0.5742963096
 H          0.4903181142       -1.0607327208       -0.5432212922
 H          0.9373552223       -3.6645660868       -0.8583828807
 H          6.5554918748       -0.6993194278        0.2107471485
 H         -4.6498908744        2.0497145274        0.6366592263
 H         -4.8806221316        1.6709074462       -1.0743237123
 H         -6.2596077396        2.0350609029       -0.0491409057
 H         -7.4945139250        0.0010571697       -0.5047741474
 H         -6.2776582796       -0.3561716565       -1.7209495607
 H         -6.7229876725       -1.5716934285       -0.5207490873
  57
        -81.18032979
 C         -5.8121399826        0.0231358129       -1.4718313483
 C         -6.1701015164        0.4630199062       -0.0572498627
 C         -6.5535723813        1.9352038120       -0.0070646577
 N         -5.0467653766        0.1313117663        0.8759709458
 C         -5.3510800996        0.3575945761        2.3176003974
 C         -4.4897382099        1.5485363169        2.7146424310
 C         -3.2129094148        1.2999027492        1.9177249381
 C         -3.7383201496        0.7729379998        0.5723229576
 C         -2.8445840417       -0.3376915697       -0.0080170755
 O         -3.2621999425       -1.4976957119        0.0728825710
 N         -1.6854102717       -0.0134649793       -0.5641677964
 C         -0.7946729267       -1.0585678570       -1.0384861438
 C          0.4956801592       -1.0592405453       -0.2209977121
 C          1.1524894028        0.3257391717       -0.2920259799
 C          0.1614289990        1.3788645754        0.2026198493
 C         -1.1043825692        1.3098584257       -0.6567779983
 N          2.3927173868        0.3364968412        0.4522388715
 C          2.6299349749        0.7358986337        1.7338802804
 N          3.8559694403        0.5679687968        2.1292476126
 C          4.5055986219        0.0067583047        1.0544017820
 C          3.5850432645       -0.1498298943       -0.0076341720
 C          4.0268899592       -0.7112401827       -1.2065963697
 C          3.5151211020       -1.0671705924       -2.4808313469
 C          4.5570219002       -1.5937311946       -3.1880653432
 N          5.6903481430       -1.5883113716       -2.4305221598
 C          5.4052814510       -1.0589073305       -1.2118828786
 N          6.2882807231       -0.9109762764       -0.2183521364
 C          5.8401137216       -0.3855591747        0.9024049180
 H         -3.8882387092        1.5778679162       -0.1445792393
 H          6.5964948657       -1.9211687061       -2.7132976563
 H         -7.0178604626       -0.1361982628        0.2878341839
 H         -4.8305045957       -0.8825450553        0.7209742194
 H         -6.4150742067        0.5250520197        2.4620277418
 H         -5.0533517152       -0.5251938697        2.8830505506
 H         -4.3101945770        1.5816198863        3.7854494032
 H         -4.9498144391        2.4874057415        2.4116441205
 H         -2.6159785201        2.2003038331        1.8064256057
 H         -2.6079781607        0.5366296626        2.4086147216
 H         -1.3070032894       -2.0166359895       -0.9464095142
 H         -0.5697277123       -0.8743189354       -2.0923202018
 H          0.2780344491       -1.3039539095        0.8204861003
 H          1.1747518132       -1.8174930787       -0.6108128151
 H          1.4183493460        0.5432257266       -1.3333879639
 H         -0.0991940742        1.1807706625        1.2423126387
 H          0.6012087222        2.3732170664        0.1344243092
 H         -0.8422130884        1.4907038509       -1.7034205738
 H         -1.8091590335        2.0715565307       -0.3389545130
 H          1.8770267360        1.1652732760        2.3622890957
 H          2.5105385236       -0.9568495540       -2.8346029742
 H          4.5684970411       -1.9760894155       -4.1893424212
 H          6.5554590005       -0.2697144369        1.7030684663
 H         -5.7523802579        2.5806640642       -0.3540342618
 H         -7.4040500334        2.0909813934       -0.6645841124
 H         -6.8507058218        2.2431276197        0.9902094490
 H         -5.0660157214        0.6716726782       -1.9222077723
 H         -5.4379973191       -0.9981106711       -1.4832558641
 H         -6.7006967955        0.0595645854       -2.0948420663
  57
        -81.18021838
 C         -5.6840464107        0.8110580335        1.6806887254
 C         -6.0441797401        0.2462869055        0.3117478860
 C         -6.3519339592       -1.2427769936        0.3815574953
 N         -4.9563598224        0.5611342178       -0.6681888756
 C         -5.2731370248        0.2075916733       -2.0812535374
 C         -4.3577453070       -0.9655672092       -2.4030879509
 C         -3.0820523322       -0.5906475162       -1.6552614135
 C         -3.6110424507        0.0127963045       -0.3437944635
 C         -2.7661548563        1.2096496980        0.1274616588
 O         -3.2431394608        2.3372567395       -0.0391110398
 N         -1.5832827757        0.9894654693        0.6844527293
 C         -0.7375048968        2.1127430805        1.0505810766
 C          0.5244756113        2.1136986135        0.1874412312
 C          1.2653266799        0.7919033046        0.3856638586
 C          0.3308518651       -0.3696069155        0.0217942049
 C         -0.9360103595       -0.2915211659        0.8763817814
 N          2.4877965395        0.7192108724       -0.3847244077
 C          2.8371789232        1.3852807630       -1.5216256173
 N          4.0030549510        1.0619679712       -1.9949158691
 C          4.4873418435        0.1052890515       -1.1331063268
 C          3.5330024975       -0.1205147207       -0.1145949506
 C          3.8132630917       -1.0631600370        0.8759364953
 C          3.2100792681       -1.6206887067        2.0325591391
 C          4.0927554374       -2.5337587969        2.5329926786
 N          5.2112588301       -2.5819155018        1.7553976296
 C          5.0774762962       -1.6974427450        0.7326107008
 N          5.9905405457       -1.4916049327       -0.2226907479
 C          5.6958726946       -0.6000261146       -1.1450562169
 H         -3.7058443922       -0.7398110108        0.4364366689
 H          6.0144124230       -3.1693553812        1.9031119032
 H         -6.9278562813        0.7738895842       -0.0590839211
 H         -4.7907445814        1.5937160009       -0.5970349728
 H         -6.3293022968       -0.0242167949       -2.1898557101
 H         -5.0312374124        1.0572308835       -2.7194547918
 H         -4.1952929171       -1.0733091933       -3.4717296188
 H         -4.7626823680       -1.8999251827       -2.0184200541
 H         -2.4359936528       -1.4473740043       -1.4874995403
 H         -2.5261816575        0.1612825169       -2.2166055119
 H         -1.3035716437        3.0325691416        0.9008559853
 H         -0.4721588449        2.0242462352        2.1071205676
 H          0.2373518327        2.2299666014       -0.8583309178
 H          1.1592265121        2.9540965882        0.4666217609
 H          1.5595606513        0.7021433986        1.4384868658
 H          0.0777936371       -0.3043221132       -1.0376088351
 H          0.8345155481       -1.3202138252        0.1959833462
 H         -0.6622823172       -0.3732286401        1.9327291817
 H         -1.6020442270       -1.1110788105        0.6262517428
 H          2.2124834693        2.1227366256       -1.9825890254
 H          2.2526740633       -1.3820479811        2.4479581317
 H          3.9994996333       -3.1592716157        3.3983588189
 H          6.4345082355       -0.4370001395       -1.9158258285
 H         -5.5112292389       -1.8191326227        0.7556098761
 H         -7.1793834436       -1.3905660453        1.0696012915
 H         -6.6533768161       -1.6399476784       -0.5822948215
 H         -6.5582335541        0.7780766237        2.3239254330
 H         -4.8973881797        0.2374090672        2.1625814347
 H         -5.3632294052        1.8476813516        1.6062451562
  57
        -81.18012500
 C         -5.9111035807       -0.6973377971        1.1925809222
 C         -6.2029124359        0.3997375509        0.1757025966
 C         -6.6491199175       -0.1769020764       -1.1604567882
 N         -5.0113532222        1.2970456597        0.0428242809
 C         -5.2366865634        2.5070814706       -0.7980655537
 C         -4.4084488968        2.2684907318       -2.0530298200
 C         -3.1724976464        1.5713613128       -1.4928741835
 C         -3.7541153160        0.6438256276       -0.4134002306
 C         -2.8465616460        0.5553141821        0.8263291118
 O         -3.2035362915        1.1777336034        1.8323047284
 N         -1.7390688265       -0.1710974916        0.7686383260
 C         -0.8268610913       -0.1894660352        1.8990973744
 C          0.5007828989        0.4580532335        1.5081979379
 C          1.0927788889       -0.2725646481        0.2977564486
 C          0.0800298608       -0.2701878380       -0.8526308116
 C         -1.2324248430       -0.8973721656       -0.3769961611
 N          2.3461629134        0.3211742994       -0.1089351924
 C          2.5471029914        1.6000276164       -0.5383221376
 N          3.7793210198        1.8782335597       -0.8373530620
 C          4.4749011917        0.7160672482       -0.5971390670
 C          3.5757404675       -0.2748910863       -0.1352069863
 C          4.0735611571       -1.5437478736        0.1702635912
 C          3.6096622698       -2.8008520770        0.6373235413
 C          4.6977315405       -3.6221568907        0.7027797674
 N          5.8159378623       -2.9532803829        0.3038831013
 C          5.4749885810       -1.6808602747       -0.0288580213
 N          6.3344826860       -0.7533565788       -0.4635781068
 C          5.8367294302        0.4321774370       -0.7442764025
 H         -3.9831730476       -0.3428629802       -0.8109672952
 H          6.7489206444       -3.3266503341        0.2589308914
 H         -7.0002190561        1.0357747966        0.5714886773
 H         -4.7594854578        1.5923912100        1.0165640003
 H         -6.2964255343        2.6421248906       -0.9973632506
 H         -4.8640329131        3.3811772395       -0.2642936998
 H         -4.1656306515        3.1967533634       -2.5623662810
 H         -4.9289136261        1.6159992075       -2.7518160743
 H         -2.6250129477        1.0269909201       -2.2567552035
 H         -2.5042839047        2.3033073876       -1.0375172432
 H         -1.2890014839        0.3534469844        2.7241038976
 H         -0.6633873899       -1.2270225308        2.2015195192
 H          0.3387440886        1.5087609026        1.2633210607
 H          1.1916813853        0.4106016240        2.3497546525
 H          1.3187358144       -1.3048912163        0.5780071774
 H         -0.0941419882        0.7547091360       -1.1814033003
 H          0.4741726134       -0.8383805379       -1.6948434812
 H         -1.0454781822       -1.9291287373       -0.0646502093
 H         -1.9534712914       -0.9059813475       -1.1881719791
 H          1.7545727155        2.3161741678       -0.6212540478
 H          2.6079072493       -3.0767282523        0.8963799319
 H          4.7517319586       -4.6478709247        1.0090934746
 H          6.5324203474        1.1801624331       -1.0945837161
 H         -6.9031547945        0.6011155284       -1.8730427621
 H         -5.8985768569       -0.8280042661       -1.5983426023
 H         -7.5415039327       -0.7739780666       -0.9960007867
 H         -5.4922404334       -0.2843004761        2.1074405645
 H         -6.8364442547       -1.2044061194        1.4489681649
 H         -5.2237220754       -1.4419170292        0.8010106571
  57
        -81.18009218
 C         -5.9117824223       -0.3177577400       -1.2580415232
 C         -6.2016280229        0.5327190759       -0.0270164874
 C         -6.5099516841        1.9757086455       -0.4007523192
 N         -5.0665573515        0.4223899994        0.9436004505
 C         -5.3115462128        1.0750671210        2.2611520477
 C         -4.3809834289        2.2798829480        2.2774343718
 C         -3.1445117240        1.7390734743        1.5660739077
 C         -3.7383822177        0.8719179420        0.4438690370
 C         -2.9192746037       -0.4085746864        0.2025015660
 O         -3.3906582688       -1.4682330979        0.6286525985
 N         -1.7637022051       -0.3278246990       -0.4424395423
 C         -0.9387638175       -1.5134345676       -0.5977086456
 C          0.3677750877       -1.3469342718        0.1763957792
 C          1.0936901715       -0.0821361934       -0.2989151570
 C          0.1683640608        1.1280491871       -0.1474815789
 C         -1.1216856442        0.8743264177       -0.9319072034
 N          2.3369727241        0.0946754898        0.4173690315
 C          2.5108026421        0.5489121431        1.6914991962
 N          3.7452891309        0.5591171103        2.0935371488
 C          4.4703797255        0.0700757176        1.0320366643
 C          3.5860471236       -0.2349838351       -0.0297962331
 C          4.1109357255       -0.7629020385       -1.2113037144
 C          3.6661509822       -1.2219832685       -2.4780452060
 C          4.7768209914       -1.6214621705       -3.1634386020
 N          5.8909800742       -1.4390968493       -2.4000812084
 C          5.5242069003       -0.9199240429       -1.1992292194
 N          6.3714538717       -0.6269297158       -0.2070564002
 C          5.8469950590       -0.1388882796        0.8970411871
 H         -3.8710055974        1.4385782749       -0.4756796511
 H          6.8368713888       -1.6553905078       -2.6652366798
 H         -7.0664191994        0.1082701373        0.4914266811
 H         -4.9065392827       -0.6034554866        1.0883996827
 H         -6.3608503642        1.3363547157        2.3690911887
 H         -5.0379507047        0.3798022163        3.0545406947
 H         -4.1649584981        2.6129458819        3.2885804030
 H         -4.8047865325        3.1141792153        1.7212958995
 H         -2.5089645245        2.5330419148        1.1849346966
 H         -2.5610741600        1.1200846710        2.2486923624
 H         -1.4968411933       -2.3733423773       -0.2262429547
 H         -0.7281118577       -1.6568131976       -1.6606592239
 H          0.1598800285       -1.2677309468        1.2450909042
 H          0.9988303204       -2.2217922204        0.0192425946
 H          1.3629870902       -0.1961582587       -1.3532691440
 H         -0.0698351503        1.2819422758        0.9046788945
 H          0.6599416010        2.0239368516       -0.5252574132
 H         -0.8787923104        0.7200960567       -1.9874047856
 H         -1.7799919247        1.7333218320       -0.8493619438
 H          1.6999054003        0.8751596277        2.3103914589
 H          2.6606362890       -1.2645651664       -2.8440095443
 H          4.8496884271       -2.0274059893       -4.1527728439
 H          6.5324530265        0.0942568935        1.6982558007
 H         -6.7620277968        2.5745256834        0.4684686872
 H         -5.6881601983        2.4476467063       -0.9307308817
 H         -7.3706640059        1.9823484930       -1.0633752819
 H         -5.1500012674        0.1292025157       -1.8905899609
 H         -5.5885347348       -1.3177805283       -0.9777693453
 H         -6.8174303560       -0.4137337905       -1.8493148541
  57
        -81.18004505
 C         -5.7662974093        0.4966084217        1.7656642214
 C         -6.1530115383        0.3835616872        0.2957686110
 C         -6.5802764989       -1.0320249412       -0.0655141303
 N         -5.0308969632        0.8797538951       -0.5628272759
 C         -5.3555911685        0.9750400597       -2.0144966601
 C         -4.5340346530       -0.1265703631       -2.6696832020
 C         -3.2421584780       -0.0874213180       -1.8591952816
 C         -3.7375102489        0.1561149890       -0.4241709569
 C         -2.8061088115        1.0971535325        0.3604219235
 O         -3.1917077349        2.2585902815        0.5312819429
 N         -1.6500272546        0.6345767237        0.8155304430
 C         -0.7215440220        1.5350296172        1.4773146290
 C          0.5427823849        1.6887378630        0.6324289878
 C          1.1742815684        0.3116843720        0.4101190097
 C          0.1505973128       -0.6240228281       -0.2444703068
 C         -1.1076007382       -0.6940876183        0.6236930653
 N          2.3781680149        0.3932671587       -0.3861894930
 C          2.5607712606        1.0737577795       -1.5538737191
 N          3.7452931841        0.9453691397       -2.0697515141
 C          4.4224319286        0.1159541647       -1.2063583012
 C          3.5625951647       -0.2440571377       -0.1417019017
 C          4.0434655319       -1.1017116286        0.8500342474
 C          3.5955847598       -1.7339053754        2.0387293793
 C          4.6441573355       -2.4680395379        2.5125012082
 N          5.7218396528       -2.3335306245        1.6893447355
 C          5.3930922243       -1.5082345895        0.6613251004
 N          6.2184185983       -1.1682356308       -0.3344452617
 C          5.7348575302       -0.3656174448       -1.2586111209
 H         -3.9009161991       -0.7780166198        0.1095650250
 H          6.6202547161       -2.7699236559        1.8085957121
 H         -6.9863889378        1.0656700812        0.1033510446
 H         -4.7850897241        1.8314950504       -0.1986974345
 H         -6.4254497166        0.8715340636       -2.1746016371
 H         -5.0365344492        1.9497805022       -2.3831140774
 H         -4.3666225441        0.0644630834       -3.7258476233
 H         -5.0185267300       -1.0957961386       -2.5656720691
 H         -2.6705326942       -1.0063126058       -1.9509420162
 H         -2.6196372790        0.7458125626       -2.1873058438
 H         -1.2121748938        2.4997379979        1.6098049035
 H         -0.4714881844        1.1233866127        2.4584069154
 H          0.2821619498        2.1421711759       -0.3243222957
 H          1.2452082796        2.3488640721        1.1405421311
 H          1.4758489297       -0.0998499646        1.3778821771
 H         -0.0961990084       -0.2462106383       -1.2377202001
 H          0.5774100206       -1.6210470253       -0.3527335100
 H         -0.8429035059       -1.0934028845        1.6073706784
 H         -1.8366994575       -1.3550851054        0.1659727688
 H          1.7942521206        1.6693281643       -2.0068210919
 H          2.6282918868       -1.6663048377        2.4929923707
 H          4.6963340488       -3.0833428267        3.3886039769
 H          6.4013205797       -0.0940699132       -2.0637683109
 H         -6.9037075199       -1.1066917936       -1.0986953287
 H         -5.7921731820       -1.7572767658        0.1128266139
 H         -7.4232994904       -1.3069614960        0.5618576290
 H         -5.0377872989       -0.2562485060        2.0530312527
 H         -5.3583355914        1.4794899450        1.9906711576
 H         -6.6492747567        0.3534150719        2.3811846105
  57
        -81.18002576
 C         -6.5812626618        1.9291462898       -0.0775190975
 C         -6.0448927848        0.5277431242       -0.3315980832
 C         -7.1560989563       -0.5133587837       -0.3444631675
 N         -5.0073458229        0.1264348219        0.6697695697
 C         -5.3907503306        0.2547424413        2.1032959311
 C         -4.5320430232        1.3940251354        2.6352620822
 C         -3.2191962138        1.1876966360        1.8850984115
 C         -3.6879418512        0.7894239678        0.4774614646
 C         -2.7793363779       -0.2647378169       -0.1809025355
 O         -3.2097050263       -1.4216150779       -0.2386769026
 N         -1.5977209657        0.1024985070       -0.6567863892
 C         -0.6966026012       -0.8980628879       -1.2026962802
 C          0.5668276485       -0.9874517516       -0.3488421689
 C          1.2318640872        0.3929925267       -0.2674615059
 C          0.2311665703        1.3987876443        0.3004772543
 C         -1.0084005219        1.4242855710       -0.5985199680
 N          2.4516079876        0.3237248301        0.5069016193
 C          2.6640235222        0.6248767215        1.8193714515
 N          3.8773268134        0.4070874190        2.2294363184
 C          4.5438810624       -0.0858279334        1.1317064035
 C          3.6472365591       -0.1478110756        0.0399459331
 C          4.1094051361       -0.6270037372       -1.1867518190
 C          3.6237844089       -0.8776814547       -2.4958116613
 C          4.6736440456       -1.3712535292       -3.2149914698
 N          5.7871016086       -1.4449444672       -2.4319515722
 C          5.4810742785       -1.0002640212       -1.1848823758
 N          6.3415658310       -0.9417837961       -0.1627854296
 C          5.8751314902       -0.4901001184        0.9823397529
 H         -3.8130942235        1.6579503748       -0.1689317135
 H          6.6939712743       -1.7741328088       -2.7165963865
 H         -5.5406593587        0.5034621078       -1.3030671129
 H         -4.7846554165       -0.8754581289        0.4589451151
 H         -6.4553330109        0.4416708956        2.2018427881
 H         -5.1473015148       -0.6743677795        2.6175715561
 H         -4.4065803464        1.3393868621        3.7129004188
 H         -4.9663555308        2.3607579125        2.3862634796
 H         -2.6021836516        2.0813235655        1.8814350793
 H         -2.6533008304        0.3721708380        2.3368410828
 H         -1.2158653030       -1.8566541326       -1.2208654859
 H         -0.4371110714       -0.6137947575       -2.2259474492
 H          0.3147450932       -1.3281240503        0.6572434512
 H          1.2537927706       -1.7109160467       -0.7876627763
 H          1.5263254621        0.7083641131       -1.2757784416
 H         -0.0609826349        1.0998629669        1.3072313800
 H          0.6761650246        2.3921982960        0.3440507419
 H         -0.7138659564        1.7070590350       -1.6135199284
 H         -1.7200466700        2.1551093785       -0.2279596910
 H          1.9030939403        1.0207907149        2.4599306711
 H          2.6309777468       -0.7202530590       -2.8646554070
 H          4.7037995400       -1.6786069288       -4.2414065257
 H          6.5726650699       -0.4454539005        1.8055311087
 H         -6.7563003711       -1.5041627717       -0.5475586403
 H         -7.6975673016       -0.5393668403        0.5966116411
 H         -7.8666171543       -0.2735561046       -1.1297573128
 H         -5.7853338081        2.6639032827       -0.0040627918
 H         -7.2154865290        2.2142466473       -0.9118517682
 H         -7.1864772982        1.9734051487        0.8224587564
  57
        -81.17994777
 C         -7.2631998595       -0.2254271794       -0.1213261311
 C         -6.0518848788        0.6992854789       -0.1701661535
 C         -5.4730322816        0.6900933742       -1.5807442765
 N         -5.0426469007        0.2293618342        0.8287100257
 C         -5.4891641894        0.3710964810        2.2477773703
 C         -4.5109171473        1.3525102312        2.8834631530
 C         -3.2113271386        1.0414780847        2.1520081459
 C         -3.6914909019        0.8460844979        0.7079671589
 C         -2.8169175044       -0.1652681623       -0.0501871818
 O         -3.2521267382       -1.3154801788       -0.1587182938
 N         -1.6472112695        0.2255743744       -0.5394231842
 C         -0.7735551638       -0.7438212061       -1.1780033484
 C          0.5076601275       -0.9136695586       -0.3637761858
 C          1.1959310469        0.4475856368       -0.1974765449
 C          0.2231207546        1.4228181105        0.4642557362
 C         -1.0368611207        1.5314529828       -0.3998654096
 N          2.4294717787        0.3049736923        0.5445983209
 C          2.6728102556        0.5140622481        1.8695285048
 N          3.8889599035        0.2465552532        2.2397499302
 C          4.5244350512       -0.1847979963        1.0986215660
 C          3.6063660255       -0.1567110324        0.0233593098
 C          4.0361166529       -0.5613641307       -1.2413996001
 C          3.5218052992       -0.7136770924       -2.5546296411
 C          4.5477077288       -1.1789623998       -3.3254194570
 N          5.6732373931       -1.3275223447       -2.5707453097
 C          5.3994285894       -0.9610233235       -1.2912088008
 N          6.2797823333       -0.9874620058       -0.2848002513
 C          5.8440636050       -0.6038391885        0.8966442608
 H         -3.7799668393        1.8010177230        0.1926676920
 H          6.5675509393       -1.6553746563       -2.8940614622
 H         -6.3360075622        1.7170571533        0.1132655461
 H         -4.8521035076       -0.7742044261        0.6043400655
 H         -6.5111502587        0.7372157053        2.2901175812
 H         -5.4375277607       -0.5988384776        2.7394786933
 H         -4.4322780269        1.2094690021        3.9572505313
 H         -4.8141864771        2.3813630228        2.6931727315
 H         -2.4809101100        1.8401231515        2.2413251234
 H         -2.7725068307        0.1179678503        2.5318048197
 H         -1.3074146497       -1.6915112111       -1.2535228723
 H         -0.5334505289       -0.3881159558       -2.1834574953
 H          0.2729764490       -1.3234359950        0.6205574472
 H          1.1730656930       -1.6126285923       -0.8702608384
 H          1.4747670738        0.8313553861       -1.1863749311
 H         -0.0506512370        1.0537695807        1.4529157643
 H          0.6840526855        2.4042478647        0.5701349635
 H         -0.7626479354        1.8849084098       -1.3982640814
 H         -1.7263818694        2.2432443749        0.0430596646
 H          1.9324651259        0.8806818673        2.5503525693
 H          2.5261772464       -0.5113617622       -2.8927307813
 H          4.5529508595       -1.4170740476       -4.3704817484
 H          6.5571755136       -0.6276684326        1.7072664979
 H         -5.0563035995       -0.2862477197       -1.8169355987
 H         -6.2706135742        0.8916311727       -2.2894829750
 H         -4.7075392377        1.4445810001       -1.7313309512
 H         -6.9844648143       -1.2273178000       -0.4394708382
 H         -7.7088504899       -0.2861465614        0.8662074435
 H         -8.0247203272        0.1415394995       -0.8028233457
  57
        -81.17992299
 C         -6.3865776993       -1.1549497306        0.6236332729
 C         -5.9236850239        0.2935945887        0.5635802505
 C         -7.0869279510        1.2544048094        0.3572014099
 N         -4.9030989844        0.5199088813       -0.5076556894
 C         -5.2743670833        0.0665466511       -1.8769836323
 C         -4.3600084906       -1.1186286201       -2.1555129159
 C         -3.0612220179       -0.6923617777       -1.4771360986
 C         -3.5531621203       -0.0203438914       -0.1862384731
 C         -2.6992568996        1.1946460350        0.2195542694
 O         -3.1868497392        2.3142517902        0.0303711012
 N         -1.5011495572        0.9969006070        0.7515174541
 C         -0.6489826848        2.1340647591        1.0552028624
 C          0.5897696485        2.1063933703        0.1593798264
 C          1.3386980806        0.7932422328        0.3830529777
 C          0.3973063996       -0.3810576703        0.0836036379
 C         -0.8450209000       -0.2753593350        0.9704941213
 N          2.5408606602        0.6962435406       -0.4159974742
 C          2.8629906410        1.3301921401       -1.5790133537
 N          4.0164007546        0.9916407883       -2.0716879435
 C          4.5204571616        0.0578690115       -1.1962129969
 C          3.5913525367       -0.1378087922       -0.1485585617
 C          3.8947556239       -1.0532464355        0.8604785314
 C          3.3201933273       -1.5767171955        2.0471979045
 C          4.2138648321       -2.4774001754        2.5506097016
 N          5.3121380993       -2.5500775928        1.7465298668
 C          5.1538279659       -1.6943725048        0.7030326303
 N          6.0432656509       -1.5167333874       -0.2797643510
 C          5.7272805359       -0.6501021905       -1.2187054842
 H         -3.6365919088       -0.7321231921        0.6348769036
 H          6.1180471756       -3.1346860305        1.8903565237
 H         -5.4261021136        0.5541235143        1.5032708251
 H         -4.7308053168        1.5533734034       -0.5194931303
 H         -6.3284342359       -0.1875691576       -1.9259053032
 H         -5.0735881714        0.8728344189       -2.5816207734
 H         -4.2331212866       -1.2930430736       -3.2201786578
 H         -4.7481678228       -2.0280314677       -1.7000285034
 H         -2.4017275003       -1.5333271752       -1.2844338798
 H         -2.5328210984        0.0308969822       -2.0992008432
 H         -1.2211365381        3.0470926058        0.8879621777
 H         -0.3556956857        2.0835028098        2.1068281520
 H          0.2747639408        2.1861011134       -0.8817807004
 H          1.2296514633        2.9568162895        0.3926792802
 H          1.6602731603        0.7394573992        1.4303799565
 H          0.1146039162       -0.3514024818       -0.9698636955
 H          0.9074351898       -1.3247649620        0.2753564859
 H         -0.5410745093       -0.3182915841        2.0208023768
 H         -1.5162935920       -1.1042973052        0.7704319960
 H          2.2281851019        2.0560846713       -2.0444803352
 H          2.3742348814       -1.3239159787        2.4801102532
 H          4.1416895398       -3.0780448182        3.4353876052
 H          6.4474019402       -0.5090869774       -2.0109976898
 H         -7.6269494281        1.0451688398       -0.5615268495
 H         -7.7859297661        1.1575044922        1.1824521936
 H         -6.7393320850        2.2846161648        0.3338794438
 H         -7.0121285627       -1.2830844107        1.5022302830
 H         -6.9816314942       -1.4253416369       -0.2429805934
 H         -5.5539624804       -1.8463784122        0.7097167953
  57
        -81.17992249
 C         -6.3875249127       -1.1519314763        0.6286421094
 C         -5.9224899084        0.2958792107        0.5668991882
 C         -7.0847726985        1.2585523066        0.3639098333
 N         -4.9049527573        0.5203166290       -0.5076225807
 C         -5.2808550480        0.0666705297       -1.8756067372
 C         -4.3663064463       -1.1175421863       -2.1576829118
 C         -3.0657635452       -0.6905975017       -1.4831266491
 C         -3.5546563804       -0.0211595519       -0.1898124813
 C         -2.6996145286        1.1925761955        0.2172289856
 O         -3.1864775780        2.3127963477        0.0296554714
 N         -1.5016754550        0.9933347713        0.7490309370
 C         -0.6497685630        2.1297579728        1.0562417404
 C          0.5898108813        2.1044698235        0.1615500689
 C          1.3385775669        0.7908294866        0.3828059346
 C          0.3975879991       -0.3828265172        0.0795729119
 C         -0.8458143069       -0.2795273304        0.9653027597
 N          2.5416035092        0.6958835250       -0.4151819111
 C          2.8638414514        1.3312216866       -1.5773921565
 N          4.0178232081        0.9942203983       -2.0697238525
 C          4.5222617938        0.0601406339       -1.1947917690
 C          3.5926598579       -0.1374911564       -0.1479397675
 C          3.8963900158       -1.0535712363        0.8604169914
 C          3.3216914682       -1.5786400632        2.0463658661
 C          4.2160054404       -2.4787875406        2.5496120359
 N          5.3147467913       -2.5497552169        1.7460662439
 C          5.1561854324       -1.6933183345        0.7031914147
 N          6.0459735091       -1.5140190823       -0.2789805068
 C          5.7297675311       -0.6467192014       -1.2172707557
 H         -3.6369620751       -0.7348115998        0.6297879872
 H          6.1211729660       -3.1336930393        1.8898875375
 H         -5.4215084971        0.5558672038        1.5049571495
 H         -4.7316340691        1.5535741366       -0.5203061016
 H         -6.3347964892       -0.1886689595       -1.9205239349
 H         -5.0836950161        0.8731917758       -2.5809775075
 H         -4.2427371296       -1.2912456331       -3.2228382551
 H         -4.7522119008       -2.0275252174       -1.7014188425
 H         -2.4044683615       -1.5309136861       -1.2937381914
 H         -2.5403683759        0.0342971365       -2.1058292033
 H         -1.2218320975        3.0431611192        0.8907501419
 H         -0.3574567306        2.0766018883        2.1080124058
 H          0.2757839216        2.1866326350       -0.8797075824
 H          1.2294136371        2.9543783289        0.3975033911
 H          1.6590309644        0.7346199190        1.4303239278
 H          0.1160283681       -0.3506304024       -0.9741387293
 H          0.9076513553       -1.3269398948        0.2695900603
 H         -0.5431657569       -0.3254713103        2.0158550474
 H         -1.5168013080       -1.1079012420        0.7619369754
 H          2.2286193343        2.0569491661       -2.0425554767
 H          2.3752373518       -1.3271682812        2.4789136086
 H          4.1440183049       -3.0800749529        3.4339265268
 H          6.4500098839       -0.5046067055       -2.0093178562
 H         -6.7355270862        2.2881967640        0.3399634324
 H         -7.6275113289        1.0504439668       -0.5534870167
 H         -7.7816918860        1.1625281302        1.1910260052
 H         -7.0094690707       -1.2791674769        1.5099339355
 H         -6.9868439112       -1.4212181315       -0.2353825149
 H         -5.5557697327       -1.8448936169        0.7109329312
  57
        -81.17986235
 C         -6.7409914447       -0.8760640713        0.0861737342
 C         -6.0803933203        0.4132198082        0.5527216464
 C         -7.0930370053        1.5339218400        0.7464651835
 N         -5.0101438806        0.8749376400       -0.3862466375
 C         -5.4034663921        1.0130147789       -1.8162037483
 C         -4.6539968465       -0.1004900959       -2.5350595118
 C         -3.3274907156       -0.1368506857       -1.7815066974
 C         -3.7565621488        0.0738131569       -0.3215838273
 C         -2.7543796360        0.9246345320        0.4795443415
 O         -3.0776886483        2.0914627126        0.7265913767
 N         -1.6100457695        0.3821618251        0.8713638574
 C         -0.6158974119        1.1995869621        1.5452703490
 C          0.6269891687        1.3362051032        0.6671036108
 C          1.1770104041       -0.0546621679        0.3304022074
 C          0.0813020017       -0.8984465490       -0.3303153808
 C         -1.1399788938       -0.9582700082        0.5901377647
 N          2.3455094815        0.0399326782       -0.5150259366
 C          2.4040180243        0.5525115503       -1.7776918606
 N          3.5870611500        0.5302809378       -2.3114096709
 C          4.3990116598       -0.0314264167       -1.3538882661
 C          3.6220874804       -0.3433895127       -0.2123768626
 C          4.2520033899       -0.9271730464        0.8892588668
 C          3.9342004746       -1.3973094959        2.1899153660
 C          5.0961864162       -1.8610067986        2.7356033116
 N          6.1228600307       -1.7098022267        1.8525812366
 C          5.6469505844       -1.1416225734        0.7138968230
 N          6.3914786969       -0.8517982352       -0.3583364901
 C          5.7711735460       -0.3017867934       -1.3803694111
 H         -3.9591735234       -0.8714593651        0.1816658400
 H          7.0828700667       -1.9685628151        2.0050490754
 H         -5.5766123899        0.2368916167        1.5086741959
 H         -4.6969766098        1.8059954801       -0.0214151958
 H         -6.4807391800        0.9426666128       -1.9278349365
 H         -5.0746626292        1.9860250761       -2.1797223880
 H         -4.5242482150        0.1135037907       -3.5921338149
 H         -5.1756218089       -1.0509183902       -2.4362333768
 H         -2.7951715800       -1.0718855465       -1.9287114478
 H         -2.6891416829        0.6852161210       -2.1071186678
 H         -1.0521399643        2.1785522741        1.7459891732
 H         -0.3548062412        0.7235738488        2.4938064512
 H          0.3710074079        1.8643190143       -0.2526675423
 H          1.3820326596        1.9207405506        1.1924979546
 H          1.5029471384       -0.5441259977        1.2521058929
 H         -0.1949853863       -0.4526124288       -1.2860750947
 H          0.4510047201       -1.9065885323       -0.5157805768
 H         -0.8526809154       -1.4189140721        1.5399400168
 H         -1.9192778316       -1.5611904834        0.1348512207
 H          1.5457500642        0.9418951280       -2.2871271170
 H          2.9785735952       -1.3968460336        2.6732784000
 H          5.2628225825       -2.2930161119        3.7023041731
 H          6.3734926307       -0.0669454902       -2.2452986567
 H         -6.6055606731        2.4401294217        1.0984300588
 H         -7.6298827924        1.7576836623       -0.1706977629
 H         -7.8224507650        1.2365320666        1.4938153577
 H         -7.3464705392       -0.7217598141       -0.8013823731
 H         -6.0145347346       -1.6577435729       -0.1136947446
 H         -7.3994111604       -1.2329187192        0.8727732433
  57
        -81.17983908
 C         -6.7299245747       -0.8850808159        0.1999119846
 C         -6.0737562670        0.4401762044        0.5594632492
 C         -7.0913358310        1.5676720634        0.6697901198
 N         -5.0111142834        0.8318781252       -0.4190819669
 C         -5.4115764678        0.8524158199       -1.8535745062
 C         -4.6551225158       -0.3083091337       -2.4851685290
 C         -3.3255147880       -0.2736452933       -1.7370127169
 C         -3.7513741538        0.0473878488       -0.2964086017
 C         -2.7535458779        0.9655547667        0.4326485233
 O         -3.0850060284        2.1457967839        0.5885370679
 N         -1.6043479249        0.4636686045        0.8624379212
 C         -0.6148143656        1.3382675647        1.4679121255
 C          0.6233094313        1.4187421941        0.5761014731
 C          1.1845712911        0.0113967114        0.3431176292
 C          0.0936541326       -0.8902757464       -0.2456466281
 C         -1.1235447669       -0.8902147993        0.6820798745
 N          2.3471423523        0.0509028960       -0.5147842060
 C          2.4004878325        0.5025856736       -1.8006838019
 N          3.5771765427        0.4355372976       -2.3444614008
 C          4.3896707725       -0.0957574441       -1.3703084507
 C          3.6199027632       -0.3415121739       -0.2079401450
 C          4.2516568763       -0.8859514333        0.9126080454
 C          3.9396294872       -1.2929996119        2.2356871573
 C          5.0994707081       -1.7515866022        2.7902024326
 N          6.1194458735       -1.6564497237        1.8916046903
 C          5.6409501784       -1.1317027423        0.7333808965
 N          6.3787732845       -0.9032991963       -0.3580985066
 C          5.7567310453       -0.3904706681       -1.3982461730
 H         -3.9451600134       -0.8571475283        0.2798868388
 H          7.0767285561       -1.9243219443        2.0457902126
 H         -5.5640220444        0.3422902940        1.5234184170
 H         -4.7030353397        1.7912162723       -0.1313426290
 H         -6.4886377501        0.7640689543       -1.9541243901
 H         -5.0930374466        1.7962729398       -2.2947353607
 H         -4.5311323408       -0.1780862019       -3.5564620207
 H         -5.1681854928       -1.2521455660       -2.3087887138
 H         -2.7852471195       -1.2126225367       -1.8126232109
 H         -2.6958562596        0.5258911307       -2.1289833532
 H         -1.0588106433        2.3259530570        1.5955500934
 H         -0.3458985704        0.9377269597        2.4485512590
 H          0.3576877295        1.8737000112       -0.3792309546
 H          1.3752682440        2.0481037647        1.0517759108
 H          1.5200393075       -0.4031460094        1.2975466572
 H         -0.1892184011       -0.5213302138       -1.2319038969
 H          0.4719053005       -1.9063852234       -0.3548174083
 H         -0.8285354683       -1.2745535529        1.6629393683
 H         -1.8992797886       -1.5327548848        0.2777692007
 H          1.5432109442        0.8820869363       -2.3192268612
 H          2.9889180708       -1.2562451180        2.7272460331
 H          5.2686766196       -2.1431002718        3.7735323576
 H          6.3530722350       -0.2065499532       -2.2795440621
 H         -6.6069097587        2.5010361140        0.9472220795
 H         -7.6333799998        1.7160991320       -0.2595509002
 H         -7.8157837471        1.3262707770        1.4417682859
 H         -6.0003128260       -1.6762437493        0.0568703635
 H         -7.3812432884       -1.1824814925        1.0166027046
 H         -7.3420866558       -0.8040675822       -0.6928075787
  57
        -81.17979694
 C         -7.2493794926        1.2555113596        0.2398420482
 C         -6.1001414188        0.2830406614        0.4814023929
 C         -5.4713599410        0.5788730338        1.8384851258
 N         -5.1004953709        0.4348793308       -0.6207491401
 C         -5.6064686626       -0.0057622205       -1.9561226261
 C         -4.7062517888       -1.1654373948       -2.3678230080
 C         -3.3667552251       -0.7751294432       -1.7561558199
 C         -3.7849328708       -0.2245066358       -0.3866187225
 C         -2.8276799932        0.8740151052        0.1024831488
 O         -3.1895812731        2.0446267391       -0.0490117675
 N         -1.6693696932        0.5294319650        0.6500558191
 C         -0.7210420852        1.5591803156        1.0381179928
 C          0.5245500103        1.4815280851        0.1567674281
 C          1.1418599986        0.0823153936        0.2593360583
 C          0.0932947742       -0.9734470134       -0.1084688251
 C         -1.1350767653       -0.8089537335        0.7901089379
 N          2.3134297326       -0.0330060995       -0.5793423119
 C          2.3684850045        0.1112227891       -1.9345285189
 N          3.5538826187       -0.0373269462       -2.4421439286
 C          4.3709477493       -0.3000517021       -1.3673053301
 C          3.5944384621       -0.2981918161       -0.1836585076
 C          4.2287853948       -0.5472434612        1.0356585165
 C          3.9123827775       -0.6486761260        2.4152375941
 C          5.0789341807       -0.9266927726        3.0670397001
 N          6.1072973505       -1.0057042423        2.1765141615
 C          5.6276027938       -0.7792690257        0.9256626692
 N          6.3719372356       -0.7830131021       -0.1851770416
 C          5.7472553685       -0.5454534927       -1.3189145369
 H         -3.9119470249       -1.0287845721        0.3361617192
 H          7.0699060165       -1.2006377375        2.3939557209
 H         -6.4595906768       -0.7497822838        0.4509098987
 H         -4.8425821183        1.4481079113       -0.6433060292
 H         -6.6473523042       -0.3093434660       -1.8867019264
 H         -5.5220606962        0.8182062275       -2.6625472087
 H         -4.6573831924       -1.2785714046       -3.4469432914
 H         -5.0586095822       -2.1023357949       -1.9379846971
 H         -2.6843472177       -1.6159561937       -1.6745486096
 H         -2.8919324773        0.0080643123       -2.3484767819
 H         -1.2040629497        2.5308238738        0.9309014849
 H         -0.4499322915        1.4077084258        2.0860001247
 H          0.2535363857        1.6913187094       -0.8789705311
 H          1.2455591272        2.2338328471        0.4761732944
 H          1.4799734642       -0.0860875482        1.2853146890
 H         -0.1911578279       -0.8518072245       -1.1541798426
 H          0.5114263526       -1.9716062975        0.0199889239
 H         -0.8386920346       -0.9454720970        1.8342874478
 H         -1.8783426070       -1.5594367642        0.5396265649
 H          1.5057757350        0.3297616284       -2.5311005940
 H          2.9546061763       -0.5318978133        2.8798274397
 H          5.2476155379       -1.0752650223        4.1150306920
 H          6.3494957424       -0.5477540503       -2.2152153517
 H         -4.7482736881       -0.1704865496        2.1442793090
 H         -4.9876459145        1.5528577879        1.8322763977
 H         -6.2537214707        0.6007595051        2.5911756502
 H         -7.7266227052        1.1136800028       -0.7243745038
 H         -8.0071770910        1.1163089593        1.0049367759
 H         -6.8932446917        2.2811088179        0.3044147174
  57
        -81.17975482
 C         -2.5550619711       -2.4127237469        1.7333932270
 C         -2.6657845139       -0.9173047155        2.0007628931
 C         -3.4854401280       -0.6334982701        3.2513983402
 N         -3.2658294186       -0.1805036813        0.8452917308
 C         -4.5826900080       -0.6632295045        0.3632006427
 C         -4.6580185065       -0.1249497447       -1.0573428177
 C         -3.2362632460       -0.3662452355       -1.5613948597
 C         -2.3733955627       -0.0276712173       -0.3358533496
 C         -1.9279771266        1.4461886624       -0.3314473089
 O         -2.4832801548        2.2069153326        0.4691580551
 N         -0.9887349393        1.8410929686       -1.1809471502
 C         -0.2659378523        0.9887581068       -2.1071601649
 C          1.1981435625        1.4384375552       -2.2143128654
 C          1.6808624317        2.0163782823       -0.8758670773
 C          0.9037324920        3.3078560745       -0.5979778190
 C         -0.5259640669        3.2184356368       -1.1614251851
 N          1.5073226546        1.0243764310        0.1714500057
 C          0.5861371951        0.9799344362        1.1731775325
 N          0.5687638756       -0.1396051508        1.8352443091
 C          1.5515651127       -0.9128458858        1.2634349670
 C          2.1570640649       -0.1811138149        0.2159323766
 C          3.2110309088       -0.7675417125       -0.4872613286
 C          4.1139106107       -0.4480497757       -1.5333686978
 C          4.9216033306       -1.5362922449       -1.6985110107
 N          4.5736248562       -2.5193154309       -0.8208593552
 C          3.5372467383       -2.0846159460       -0.0579185269
 N          2.9563353506       -2.7923046274        0.9154359977
 C          1.9756944634       -2.2099894813        1.5711892245
 H         -1.5086202124       -0.6819812064       -0.2256348934
 H          5.0165242226       -3.4181786721       -0.7299287479
 H         -1.6579008668       -0.5067643274        2.1340656791
 H         -3.3788729799        0.8170426141        1.1539210324
 H         -4.5794569429       -1.7515024117        0.3515482103
 H         -5.3809040419       -0.3024926035        1.0064864969
 H         -4.8862046415        0.9411901496       -1.0537620552
 H         -5.4050442496       -0.6392484982       -1.6545304265
 H         -3.1046193578       -1.4115124337       -1.8370887283
 H         -2.9939926831        0.2524334894       -2.4206584138
 H         -0.3031904997       -0.0442311588       -1.7645095711
 H         -0.7336894164        1.0380281843       -3.0952492222
 H          1.8065878383        0.5842210201       -2.5062917487
 H          1.3168991076        2.2109908023       -2.9723568463
 H          2.7530177795        2.2325007648       -0.9326552121
 H          0.8948901598        3.5177740657        0.4706334830
 H          1.4173935951        4.1360599479       -1.0837108961
 H         -0.5535593840        3.5933857598       -2.1862967961
 H         -1.2181706625        3.8042025760       -0.5565442625
 H         -0.0607237212        1.7971929189        1.4191936613
 H          4.1770633157        0.4692449602       -2.0830508745
 H          5.7286431495       -1.6767152434       -2.3898326713
 H          1.5170763228       -2.7809261281        2.3641858935
 H         -3.5656479738        0.4357641548        3.4309969034
 H         -4.4817720098       -1.0604872531        3.1790810232
 H         -2.9912659316       -1.0780823814        4.1096444420
 H         -3.5102207377       -2.9160844531        1.8519347078
 H         -2.1583464760       -2.6221005958        0.7441978307
 H         -1.8663662127       -2.8397453536        2.4563971504
  57
        -81.17971177
 C         -6.5749533919       -1.0357390021        0.4235331038
 C         -6.0124641253        0.3703318713        0.5742257301
 C         -7.1063272057        1.4289074263        0.5324698160
 N         -4.9845146932        0.6856091450       -0.4670107204
 C         -5.3918718909        0.4666056897       -1.8829068055
 C         -4.5568131008       -0.7182098162       -2.3491611336
 C         -3.2300924218       -0.4807960349       -1.6334677469
 C         -3.6723952078        0.0161010774       -0.2489056192
 C         -2.7392221083        1.0970033197        0.3260907303
 O         -3.1509361313        2.2620394232        0.3111052354
 N         -1.5579047602        0.7432899460        0.8127057943
 C         -0.6339754530        1.7637540515        1.2778843276
 C          0.5961468888        1.7993867219        0.3714796023
 C          1.2595706382        0.4199858785        0.3674966445
 C          0.2432258845       -0.6365583809       -0.0835475166
 C         -0.9848757655       -0.5864440190        0.8281752489
 N          2.4395129961        0.3876387991       -0.4674211949
 C          2.6032201712        0.9211847782       -1.7117425393
 N          3.7720171250        0.7095869497       -2.2362142400
 C          4.4573834071       -0.0250164061       -1.2967688769
 C          3.6190421579       -0.2399958721       -0.1775043408
 C          4.1097461953       -0.9841796209        0.8973829055
 C          3.6799048569       -1.4651557116        2.1611137285
 C          4.7280160961       -2.1575049537        2.6951346921
 N          5.7880007218       -2.1398318492        1.8387533430
 C          5.4479731285       -1.4345555890        0.7283995423
 N          6.2541226997       -1.2291268680       -0.3185626977
 C          5.7604750026       -0.5335173762       -1.3208602190
 H         -3.8006315955       -0.8062518322        0.4547471613
 H          6.6824739273       -2.5748104462        1.9889607317
 H         -5.4927670595        0.4514127651        1.5343597547
 H         -4.7435768576        1.6957829239       -0.3277604892
 H         -6.4602368027        0.2887062550       -1.9530883735
 H         -5.1440723455        1.3553231439       -2.4623706168
 H         -4.4468917877       -0.7383369254       -3.4296660900
 H         -5.0001707627       -1.6596683629       -2.0292817672
 H         -2.6237547463       -1.3800865658       -1.5796987157
 H         -2.6607958334        0.2951247495       -2.1464581908
 H         -1.1474548854        2.7255816420        1.2640056331
 H         -0.3397307633        1.5301596044        2.3041761409
 H          0.2879755728        2.0728501579       -0.6379702897
 H          1.2946397948        2.5546883147        0.7304179151
 H          1.5982883627        0.1879480548        1.3819949675
 H         -0.0442502464       -0.4382220288       -1.1171744276
 H          0.6945662029       -1.6275638194       -0.0366777043
 H         -0.6783029713       -0.8071106629        1.8550108597
 H         -1.7100401273       -1.3312079349        0.5159940928
 H          1.8358388129        1.4739519734       -2.2145523906
 H          2.7239804757       -1.3279626902        2.6236691437
 H          4.7912878246       -2.6671373768        3.6359569716
 H          6.4111002651       -0.3720022199       -2.1675033534
 H         -7.6607628573        1.4013831159       -0.4009895008
 H         -7.8092970653        1.2543381243        1.3413907473
 H         -6.6874820121        2.4240335823        0.6633656735
 H         -7.1957958377       -1.1302800668       -0.4618482435
 H         -5.7918161204       -1.7868479589        0.3871577474
 H         -7.1993804508       -1.2536782612        1.2851021334
  57
        -81.17963577
 C         -7.2615626670        1.0566491158        0.3188659762
 C         -6.0501592729        0.1466403688        0.4892372334
 C         -5.4185537142        0.4050946286        1.8527167007
 N         -5.0789004876        0.4210727884       -0.6145724972
 C         -5.5794721171        0.0322378263       -1.9680366497
 C         -4.6185664828       -1.0438309743       -2.4619921220
 C         -3.2954240744       -0.6145335882       -1.8408810341
 C         -3.7261568927       -0.1770679524       -0.4350807942
 C         -2.8243947399        0.9397236666        0.1137416733
 O         -3.2466792760        2.0967419080        0.0293690818
 N         -1.6472133495        0.6246636657        0.6384050348
 C         -0.7547713543        1.6784109570        1.0904484213
 C          0.5015625623        1.7083297772        0.2209331592
 C          1.1883350469        0.3412285711        0.2781680303
 C          0.2027281291       -0.7457593782       -0.1671098583
 C         -1.0497212204       -0.6922975577        0.7109427798
 N          2.3895835271        0.3073456415       -0.5251788539
 C          2.5420015732        0.7278409070       -1.8135189658
 N          3.7326081239        0.5476587391       -2.2989674621
 C          4.4468206072       -0.0427341511       -1.2824407815
 C          3.6030248236       -0.2039809295       -0.1579068926
 C          4.1228773362       -0.8009538764        0.9927269892
 C          3.7048195744       -1.1779544623        2.2952418682
 C          4.7868586048       -1.7407916326        2.9079374425
 N          5.8573837302       -1.7399886059        2.0647510837
 C          5.4904674219       -1.1754988645        0.8846227049
 N          6.2999072842       -1.0227405275       -0.1687420007
 C          5.7805416225       -0.4629031495       -1.2405715309
 H         -3.8005225941       -1.0319738678        0.2349741928
 H          6.7755341134       -2.0978423280        2.2671011458
 H         -6.3454582014       -0.9034005908        0.4046568319
 H         -4.8776017946        1.4464686349       -0.5804469575
 H         -6.5989020984       -0.3379951568       -1.9038751858
 H         -5.5567007938        0.9014293474       -2.6231342425
 H         -4.5783708630       -1.0857973117       -3.5465341968
 H         -4.9096208824       -2.0251137952       -2.0890638403
 H         -2.5632605696       -1.4163440325       -1.8197914085
 H         -2.8752744816        0.2311141135       -2.3867330731
 H         -1.2853945764        2.6288558241        1.0269704613
 H         -0.4864938973        1.4870912870        2.1326210126
 H          0.2228681743        1.9466492991       -0.8059408567
 H          1.1764503397        2.4854787931        0.5786092633
 H          1.5040142477        0.1458601576        1.3071885323
 H         -0.0620594901       -0.5818163160       -1.2128251454
 H          0.6696416207       -1.7268455335       -0.0804845773
 H         -0.7666726625       -0.8768364101        1.7516160025
 H         -1.7495693821       -1.4615748024        0.3999351602
 H          1.7482881235        1.1736185024       -2.3781853736
 H          2.7352657449       -1.0575906975        2.7335328535
 H          4.8675565449       -2.1460309011        3.8969429459
 H          6.4348192071       -0.3427845376       -2.0912554962
 H         -4.6420514512       -0.3102817952        2.1041882475
 H         -5.0002028260        1.4079417168        1.8968764715
 H         -6.1873450674        0.3314139223        2.6160292829
 H         -7.7458791894        0.9389389030       -0.6450085518
 H         -7.9957607489        0.8272823437        1.0852199052
 H         -6.9694314530        2.0975210985        0.4367448185
  57
        -81.17895208
 C         -4.5763453276        0.1913885215        2.2253063915
 C         -5.3474964209       -0.3285710320        1.0189497171
 C         -5.2637393244       -1.8469823304        0.9224451768
 N         -4.8571023204        0.3543077831       -0.2169751677
 C         -5.7600971880        0.2418312770       -1.3882119989
 C         -4.8487635975        0.5280323838       -2.5710599509
 C         -3.5767162112       -0.2206844894       -2.1772637071
 C         -3.4751008949        0.0297639065       -0.6626784743
 C         -2.6348087725        1.2828068645       -0.3472061291
 O         -3.2406322782        2.3018191949        0.0002146327
 N         -1.3186894357        1.2202063323       -0.4854068393
 C         -0.4947949462        2.3718847791       -0.1697004593
 C          0.3876479697        2.0842236075        1.0486943676
 C          1.1626259985        0.7652326770        0.9581948727
 C          0.2403925205       -0.3667753797        0.4774887486
 C         -0.5293127840        0.0421982666       -0.7783142462
 N          2.3461751988        0.8418753177        0.1214631697
 C          2.7359374893        1.7817103379       -0.7854447340
 N          3.8648690645        1.5247485870       -1.3748468876
 C          4.2877988247        0.3328188214       -0.8357377853
 C          3.3374890732       -0.1032229884        0.1160245194
 C          3.5810387481       -1.2882496715        0.8139517394
 C          2.9815220213       -2.0866488912        1.8224181635
 C          3.8161454460       -3.1465484675        2.0306918633
 N          4.9007183199       -3.0600107382        1.2097620437
 C          4.7948647796       -1.9357166972        0.4542991331
 N          5.6948130245       -1.5401796222       -0.4522690574
 C          5.4424940292       -0.4161146313       -1.0882798243
 H         -3.0979852695       -0.8333800100       -0.1193003637
 H          5.6684781137       -3.7085803545        1.1666274429
 H         -6.3967737052       -0.0344506755        1.1135444059
 H         -4.7556525191        1.3761857744        0.0159999753
 H         -6.1483910902       -0.7743986118       -1.4463028104
 H         -6.5892400868        0.9395974871       -1.2964351394
 H         -4.6524055430        1.5971306825       -2.6553929787
 H         -5.2657950187        0.1764550762       -3.5099976449
 H         -3.6906344189       -1.2858437353       -2.3744518740
 H         -2.7067493939        0.1432930973       -2.7172015795
 H          0.1041053252        2.6099914105       -1.0512898916
 H         -1.1512029077        3.2168341368        0.0445441668
 H          1.0774264843        2.9142379394        1.1993101547
 H         -0.2533118232        2.0234598682        1.9296301603
 H          1.5294653836        0.5144607194        1.9614808993
 H          0.8307209443       -1.2578158146        0.2677043617
 H         -0.4616019303       -0.5973594794        1.2792632785
 H         -1.1512958614       -0.7785889022       -1.1233678289
 H          0.1772419553        0.2952263168       -1.5748159148
 H          2.1815688431        2.6745366733       -0.9876042169
 H          2.0625494690       -1.9013157819        2.3394423024
 H          3.7105943888       -3.9645565672        2.7151618180
 H          6.1734731217       -0.0943239611       -1.8150871279
 H         -5.6831040595       -2.2243750880       -0.0046743190
 H         -4.2434688785       -2.2063393191        1.0199871449
 H         -5.8366238627       -2.2768481042        1.7388279699
 H         -5.0196251779       -0.2002336279        3.1356476675
 H         -3.5363789413       -0.1231466218        2.1978608836
 H         -4.6078684134        1.2773250833        2.2752788151
  57
        -81.17886107
 C         -6.0215722712        1.8548002091       -1.0831044017
 C         -5.4798580345        0.4404634922       -0.9207021489
 C         -6.5480060232       -0.6035527899       -1.2161100911
 N         -4.9227080333        0.2010908166        0.4448652633
 C         -5.8268474633        0.4669508346        1.5881735658
 C         -4.8702846689        0.6105333345        2.7615511738
 C         -3.7395264757        1.4357249053        2.1488048296
 C         -3.6219318190        0.8698028395        0.7226104197
 C         -2.5596222774       -0.2443071673        0.6291407668
 O         -2.9639894653       -1.4069156007        0.5214708668
 N         -1.2786033626        0.0860008190        0.6926573632
 C         -0.2545320135       -0.9388910364        0.5998193794
 C          0.5058034146       -0.7806078741       -0.7126675257
 C          1.1550738061        0.6090621398       -0.8153188147
 C          0.1258642946        1.6990233657       -0.5008956393
 C         -0.7201872580        1.4199192163        0.7490144252
 N          2.3442649241        0.6742187559        0.0145610235
 C          2.5881779211        1.3606137720        1.1666989472
 N          3.7699555616        1.1654545507        1.6697165964
 C          4.3866271692        0.2909771413        0.8072599505
 C          3.4956648623       -0.0200714868       -0.2460735550
 C          3.9314586238       -0.8731144773       -1.2625366149
 C          3.4533462872       -1.4351787444       -2.4746643084
 C          4.4639562619       -2.2038202580       -2.9755405504
 N          5.5458735494       -2.1567411312       -2.1476458906
 C          5.2599578020       -1.3505877558       -1.0919656541
 N          6.1065903464       -1.0740997271       -0.0945437713
 C          5.6723130133       -0.2594109349        0.8433897400
 H         -3.4312894459        1.6387791141       -0.0249619019
 H          6.4223811381       -2.6306655902       -2.2853510650
 H         -4.6434601032        0.2878089073       -1.6101254278
 H         -4.6437216662       -0.8127819423        0.4760346088
 H         -6.3530734645        1.4042542172        1.4163422347
 H         -6.5417634551       -0.3425945857        1.7087472012
 H         -4.5023503168       -0.3649929313        3.0805089923
 H         -5.3307506484        1.1026983938        3.6129923981
 H         -4.0183063978        2.4880415804        2.1150249180
 H         -2.8148729454        1.3380260105        2.7109572598
 H          0.4272681572       -0.8352762283        1.4489686211
 H         -0.7356636270       -1.9163592276        0.6465991063
 H          1.2690043448       -1.5544859183       -0.7822016932
 H         -0.1852900145       -0.9072224999       -1.5467000575
 H          1.5072124409        0.7527956328       -1.8445968979
 H          0.6258159058        2.6607808286       -0.3897947015
 H         -0.5379892455        1.7651302749       -1.3637273538
 H         -1.5013414981        2.1717510357        0.8217838113
 H         -0.1064671273        1.4784007674        1.6513878960
 H          1.8882610441        2.0331765933        1.6166978513
 H          2.4937091738       -1.2892881295       -2.9266641298
 H          4.4863024377       -2.7866505111       -3.8747829327
 H          6.3591568681       -0.0304401246        1.6446775942
 H         -6.1559529594       -1.6100310999       -1.0901400672
 H         -7.4148823583       -0.4756810846       -0.5744909745
 H         -6.8779443896       -0.5005698130       -2.2455004517
 H         -6.1561296914        2.0578648475       -2.1415189118
 H         -6.9907278686        1.9665039688       -0.6060529892
 H         -5.3419317752        2.6031844554       -0.6863252983
  57
        -81.17859792
 C         -4.8173798312       -0.8243495408        2.9677430687
 C         -3.6259632003       -0.9357133195        2.0224943279
 C         -2.3858719599       -0.3474018300        2.6833125524
 N         -3.9268803528       -0.2103876959        0.7537647179
 C         -5.1965008539       -0.6275129654        0.1060474773
 C         -5.0128353149       -0.2302382440       -1.3482181154
 C         -3.5615163283       -0.6280634106       -1.5988383253
 C         -2.8576304249       -0.2378974140       -0.2876257691
 C         -2.2922423551        1.1930536966       -0.3530527745
 O         -2.8649006619        2.0632762184        0.3120505293
 N         -1.2458020805        1.4389436559       -1.1328997711
 C         -0.5051423785        0.4357236707       -1.8825035042
 C          0.8927679144        0.9453675300       -2.2427800893
 C          1.5190633481        1.6877572205       -1.0556598286
 C          0.6801824030        2.9312728960       -0.7275213748
 C         -0.7516450518        2.7990824834       -1.2616501898
 N          1.6278880915        0.7785424610        0.0687633625
 C          0.7626039023        0.5888424471        1.1025667884
 N          1.0678889349       -0.4062589906        1.8819904094
 C          2.2192232977       -0.9380138698        1.3503837921
 C          2.5758622173       -0.1989526942        0.1981736220
 C          3.7148925189       -0.5739167971       -0.5158890692
 C          4.4367361496       -0.1801449497       -1.6713313575
 C          5.4996411945       -1.0303777869       -1.7763759955
 N          5.4819146828       -1.9353356373       -0.7569429275
 C          4.4058241063       -1.6884084786        0.0347722517
 N          4.0822397502       -2.3912891587        1.1248662052
 C          2.9994091297       -2.0196687479        1.7737686406
 H         -2.0795812822       -0.9473231401       -0.0069745774
 H          6.1532891988       -2.6679998849       -0.6001360386
 H         -3.4544274951       -1.9851467754        1.7643641944
 H         -3.9801130849        0.8142852230        0.9797125177
 H         -5.2889985029       -1.7108305303        0.1936782403
 H         -6.0476107656       -0.1436531922        0.5770705935
 H         -5.1427703329        0.8449701752       -1.4728617378
 H         -5.7068012248       -0.7437666674       -2.0068746766
 H         -3.4835534394       -1.7019325747       -1.7606078739
 H         -3.1483848373       -0.1162258498       -2.4620160989
 H         -0.4129777969       -0.4703574291       -1.2801846537
 H         -1.0322646009        0.1807115535       -2.8060258257
 H          1.5133081718        0.0931128709       -2.5201388204
 H          0.8560559960        1.6244884670       -3.0928704114
 H          2.5416570792        1.9844307565       -1.3062781588
 H          0.6782519791        3.1025521512        0.3483662602
 H          1.1348714068        3.8052232723       -1.1913819520
 H         -0.7861001845        3.0734270460       -2.3183857451
 H         -1.4246077171        3.4572083425       -0.7113191382
 H         -0.0870546739        1.2180868174        1.2737793828
 H          4.2084217099        0.6249355318       -2.3400492458
 H          6.2743945953       -1.0523351468       -2.5168264673
 H          2.7434064648       -2.5900529078        2.6539195132
 H         -1.4691302631       -0.5611727108        2.1423458784
 H         -2.4870152014        0.7301203228        2.7934033337
 H         -2.2700402207       -0.7714506767        3.6756937577
 H         -5.0542235771        0.2181598722        3.1645864304
 H         -5.6991772441       -1.3261197295        2.5836663828
 H         -4.5630009253       -1.2911607295        3.9144730503
  57
        -81.17785494
 C         -7.0943960384        0.7376060758        1.3119044302
 C         -5.7075966978        0.1188942592        1.1848436358
 C         -4.7562096555        0.7565482424        2.1904936119
 N         -5.1902255716        0.3183871574       -0.1988989676
 C         -6.0825326804       -0.1656377129       -1.2784908942
 C         -5.1522328788       -0.2829214376       -2.4744100523
 C         -3.9016192701       -0.8980262801       -1.8493226188
 C         -3.8362842261       -0.2493210676       -0.4518110007
 C         -2.8699240506        0.9478813067       -0.4342171502
 O         -3.3574826372        2.0791487233       -0.5211459910
 N         -1.5698154431        0.7072991466       -0.3353946542
 C         -0.6426306826        1.8280487950       -0.2876686973
 C          0.4067496048        1.5811852063        0.7895441902
 C          1.2517572247        0.3351242987        0.4796403454
 C          0.4953419435       -0.5908658323       -0.4877149596
 C         -0.9922864839       -0.6178439617       -0.1585748559
 N          2.5453105203        0.6685932606       -0.0784654919
 C          2.8756120983        1.6980038923       -0.9091410028
 N          4.1189293925        1.7048701569       -1.2853390792
 C          4.6803288610        0.6016909962       -0.6852647687
 C          3.6887547060       -0.0650869264        0.0715440192
 C          4.0345276719       -1.2315330751        0.7559627247
 C          3.4306652717       -2.2144799829        1.5816342020
 C          4.4079701766       -3.1125241752        1.9005773123
 N          5.5873461669       -2.7494840940        1.3215892083
 C          5.3982647843       -1.6065593812        0.6115340974
 N          6.3481277701       -0.9800604414       -0.0912547461
 C          5.9898406381        0.1114710103       -0.7336155894
 H         -3.5837652281       -0.9737919469        0.3206964280
 H          6.4631506849       -3.2385816959        1.3967762588
 H         -5.7686903566       -0.9607730117        1.3538316218
 H         -5.0234947927        1.3456691001       -0.3349155507
 H         -6.4709743708       -1.1448877380       -0.9952260851
 H         -6.9041681863        0.5256016148       -1.4441043967
 H         -4.9304739895        0.7030280506       -2.8833880690
 H         -5.5688703234       -0.9003374279       -3.2645839380
 H         -4.0169590809       -1.9768838207       -1.7577435832
 H         -3.0147686838       -0.6902536923       -2.4428225305
 H         -0.1763427479        1.9616270401       -1.2678832960
 H         -1.2209406538        2.7267029131       -0.0638460980
 H          1.0474755304        2.4563922105        0.8864699402
 H         -0.0994086366        1.4417873809        1.7449285388
 H          1.4617879895       -0.1973363180        1.4117679120
 H          0.6427029017       -0.2409999732       -1.5104665668
 H          0.9004714215       -1.6003649758       -0.4247216331
 H         -1.1232048216       -0.9424752480        0.8796662035
 H         -1.4854131914       -1.3313656493       -0.8177218667
 H          2.1748041929        2.4463197720       -1.2201510152
 H          2.4098230106       -2.2613966271        1.9013999252
 H          4.3433751091       -3.9943965185        2.5063504053
 H          6.7575080875        0.6141292130       -1.3031746515
 H         -3.7784067256        0.2845108173        2.1957350585
 H         -4.6284576416        1.8153179439        1.9762241548
 H         -5.1720016217        0.6635361007        3.1890752444
 H         -7.4261042434        0.6616792152        2.3430628468
 H         -7.0708516626        1.7917147164        1.0473364839
 H         -7.8278664022        0.2297092453        0.6944621358
  57
        -81.17772228
 C         -3.9187207513       -0.1241556566       -2.6188762266
 C         -3.2053923313       -0.9491649013       -1.5557187212
 C         -3.5699193512       -2.4234197348       -1.6654257797
 N         -3.5107752428       -0.4715820917       -0.1714480009
 C         -4.9386239305       -0.4189118398        0.2175754446
 C         -4.9265784388        0.4758327644        1.4470556511
 C         -3.9540701837        1.5780765885        1.0288263748
 C         -2.8898081919        0.8261644589        0.2069411241
 C         -1.6606570454        0.4590006213        1.0598438271
 O         -1.5660387057       -0.7121321274        1.4431638177
 N         -0.7805810888        1.3991200101        1.3772727370
 C         -0.7796131926        2.7848248750        0.9548003808
 C          0.4155271361        3.0875449135        0.0236835287
 C          1.5592800473        2.0932398710        0.2487985994
 C          1.6235320948        1.7800838868        1.7500631650
 C          0.3688801219        1.0230875780        2.1888486520
 N          1.3796279379        0.8672423190       -0.5109727465
 C          0.2942258863        0.4648749153       -1.2259451815
 N          0.3558771973       -0.7553312176       -1.6676341073
 C          1.5707970871       -1.2286317923       -1.2321621449
 C          2.2322789127       -0.2046590443       -0.5126954705
 C          3.5185730656       -0.4530627179       -0.0294783342
 C          4.5607488706        0.2268513557        0.6522680580
 C          5.5894920036       -0.6609843430        0.7808640880
 N          5.2517132491       -1.8573494023        0.2215821722
 C          3.9978236356       -1.7659121274       -0.2936268043
 N          3.3682713483       -2.7503276326       -0.9423654614
 C          2.1691940461       -2.4796805629       -1.4120436775
 H         -2.5974488241        1.3696545897       -0.6891866576
 H          5.8323819901       -2.6774834823        0.1747812204
 H         -2.1201294994       -0.8554721684       -1.6747723930
 H         -3.0168409093       -1.1343872764        0.4761887764
 H         -5.5081799038        0.0475869027       -0.5846296704
 H         -5.3210123297       -1.4171988480        0.4123074497
 H         -4.5418247145       -0.0660558614        2.3113650393
 H         -5.9124660021        0.8614341729        1.6889999790
 H         -4.4633246652        2.3100016228        0.4035180997
 H         -3.5259939985        2.0898491503        1.8868540450
 H         -1.7159837082        3.0410791489        0.4680184388
 H         -0.6946411649        3.3913995663        1.8601626014
 H          0.1207772526        3.0884558024       -1.0239691537
 H          0.7868785745        4.0859649386        0.2497145899
 H          2.5079932160        2.5358462726       -0.0749977123
 H          2.4952077999        1.1735087560        1.9866218222
 H          1.7154159498        2.7250888551        2.2840691124
 H          0.1527423542        1.2228883748        3.2426978252
 H          0.5073710439       -0.0554398149        2.0760930107
 H         -0.5256802609        1.1128542438       -1.4516531824
 H          4.5677202716        1.2450469749        0.9854139883
 H          6.5492540455       -0.5187879189        1.2364937786
 H          1.6710207536       -3.2717150452       -1.9506177266
 H         -4.6433141985       -2.5759669717       -1.5985869026
 H         -3.2363839708       -2.8014884687       -2.6268332397
 H         -3.0742800421       -3.0052988837       -0.8921809316
 H         -3.8373790272        0.9436506670       -2.4390266386
 H         -3.4607325466       -0.3323651314       -3.5811660442
 H         -4.9688373473       -0.3921635350       -2.6911669750
  57
        -81.17738877
 C         -6.6718106479        1.5392162659       -1.6496967525
 C         -5.2901057233        1.7376690568       -1.0382464302
 C         -4.2146472746        1.5173128320       -2.0957251192
 N         -5.0956355247        0.7823681560        0.0893052115
 C         -6.1448073625        0.8250840843        1.1353158344
 C         -5.4776209621        0.1596597294        2.3275274078
 C         -4.0738399431        0.7596571665        2.2842287437
 C         -3.7767010786        0.8766815158        0.7757431301
 C         -2.9570260247       -0.3247354012        0.2713607856
 O         -3.5638375203       -1.2238924097       -0.3194535264
 N         -1.6520376986       -0.3482792877        0.5021974898
 C         -0.8976621930        0.7306567689        1.1224167937
 C          0.3622133630        0.1723695214        1.7804602582
 C          1.3032637649       -0.4979258151        0.7693604889
 C          0.5010424652       -0.9965246425       -0.4454827112
 C         -0.8733226477       -1.4720467376       -0.0010437073
 N          2.3670147444        0.3791980889        0.3257412951
 C          2.3643240352        1.7356091563        0.1885349689
 N          3.4605071325        2.2269927104       -0.3059692655
 C          4.2679972745        1.1381229435       -0.5378000430
 C          3.5802612297       -0.0352358920       -0.1487548334
 C          4.2109603375       -1.2701218572       -0.3079399760
 C          3.9482674147       -2.6477719420       -0.0951686230
 C          5.0618145632       -3.3257490631       -0.4995719416
 N          6.0051013172       -2.4528468957       -0.9540940572
 C          5.5208001722       -1.1871850045       -0.8544486182
 N          6.1849276840       -0.0856477438       -1.2201502229
 C          5.5624689154        1.0634624207       -1.0635141050
 H         -3.2927493163        1.8193701235        0.5257091012
 H          6.9146875165       -2.6918259171       -1.3112166168
 H         -5.2114700562        2.7476329998       -0.6236446240
 H         -5.0601255301       -0.1869097018       -0.3135690045
 H         -6.3739972549        1.8687463837        1.3552761564
 H         -7.0429411243        0.3095945329        0.8067476299
 H         -5.4367122434       -0.9207116568        2.1874091550
 H         -5.9916990501        0.3698822299        3.2606057870
 H         -4.0710222350        1.7460351455        2.7456739512
 H         -3.3529076454        0.1300348358        2.7994507365
 H         -0.6289161783        1.4709059431        0.3611647688
 H         -1.5012911908        1.2165962810        1.8868966905
 H          0.8857715709        0.9713829960        2.3037237953
 H          0.0674424642       -0.5661113597        2.5256827310
 H          1.7999680474       -1.3442940852        1.2532890240
 H          0.3952463960       -0.1866268080       -1.1695983693
 H          1.0318484844       -1.8094696450       -0.9389345284
 H         -0.7760897274       -2.2338379181        0.7784756114
 H         -1.4234062125       -1.9123047345       -0.8354205259
 H          1.5379521017        2.3528224067        0.4762961212
 H          3.0570486719       -3.0893058971        0.3023625073
 H          5.2479019099       -4.3813325564       -0.4945022657
 H          6.1008971631        1.9506515774       -1.3621059822
 H         -4.4029119696        2.1695843385       -2.9429833355
 H         -3.2166246636        1.7369228186       -1.7283775365
 H         -4.2343907248        0.4894627478       -2.4513516130
 H         -6.8028338035        0.5110140307       -1.9774417772
 H         -7.4669558210        1.7992281629       -0.9588457297
 H         -6.7722032132        2.1804941617       -2.5201993321
  57
        -81.17737891
 C         -6.8009706046        1.7005379322       -1.3921460727
 C         -5.4024543233        1.8546851222       -0.8066081314
 C         -4.3624687359        1.8093285002       -1.9199893544
 N         -5.1429374272        0.7625313634        0.1740579789
 C         -6.1565093386        0.6312653872        1.2476374385
 C         -5.4300757125       -0.1611165840        2.3217359218
 C         -4.0464253877        0.4851005463        2.3147246601
 C         -3.8037626764        0.8037295254        0.8258316775
 C         -2.9747549092       -0.3003347074        0.1444050270
 O         -3.5799947603       -1.1254102302       -0.5476850723
 N         -1.6638458379       -0.3274083808        0.3367770435
 C         -0.9062413553        0.6631735415        1.0855519093
 C          0.3351122662        0.0124637415        1.6922739247
 C          1.2835629477       -0.5473116019        0.6216860356
 C          0.5014990558       -0.8509479268       -0.6678505972
 C         -0.8861025984       -1.3683118027       -0.3237236642
 N          2.3851729738        0.3457821903        0.3290247226
 C          2.4123556705        1.7087796138        0.3465312859
 N          3.5427728900        2.2275136650       -0.0282186621
 C          4.3445887475        1.1534542272       -0.3362125890
 C          3.6161033365       -0.0403093162       -0.1227748616
 C          4.2342802149       -1.2633118809       -0.3880913018
 C          3.9357495127       -2.6496497623       -0.3532819320
 C          5.0602370674       -3.3028665607       -0.7679842065
 N          6.0441100414       -2.4061633937       -1.0614441364
 C          5.5760301671       -1.1491433650       -0.8439764720
 N          6.2796722949       -0.0288729258       -1.0397393648
 C          5.6673271573        1.1091737800       -0.7899040789
 H         -3.3501869189        1.7834231306        0.6846330791
 H          6.9700823452       -2.6246993129       -1.3881888375
 H         -5.3327063708        2.8017056182       -0.2621931161
 H         -5.0951477085       -0.1419846074       -0.3582536249
 H         -6.4095313890        1.6284991904        1.6104139257
 H         -7.0493801988        0.1327977285        0.8805746409
 H         -5.3630193741       -1.2122703259        2.0407002818
 H         -5.9177821888       -0.0904960140        3.2893641231
 H         -4.0565444041        1.4039980604        2.8990802036
 H         -3.2910143048       -0.1812748085        2.7232341968
 H         -0.6160048504        1.4805357433        0.4169852646
 H         -1.5144625463        1.0689135083        1.8913951192
 H          0.8604932859        0.7362001326        2.3139673525
 H          0.0176079635       -0.8044056236        2.3400357181
 H          1.7409913378       -1.4673954011        0.9971630819
 H          0.4211839725        0.0565968713       -1.2686924730
 H          1.0334246105       -1.5918604276       -1.2632806564
 H         -0.8111810134       -2.2428878925        0.3301310487
 H         -1.4256824332       -1.6688089874       -1.2245896475
 H          1.5799978716        2.3077519229        0.6551103273
 H          3.0138846015       -3.1126697961       -0.0650940653
 H          5.2277866576       -4.3560762572       -0.8757299369
 H          6.2370028769        2.0121073389       -0.9522966207
 H         -4.5958474610        2.5663221786       -2.6624401976
 H         -3.3563884173        2.0022717340       -1.5597902671
 H         -4.3735725739        0.8396572927       -2.4129229822
 H         -6.9200077875        0.7219531197       -1.8503617593
 H         -7.5757726190        1.8435464969       -0.6462385875
 H         -6.9486900160        2.4490320274       -2.1648245930
  57
        -81.17731503
 C         -4.6863829366       -2.8238817522       -0.2040954417
 C         -3.7439796637       -1.7214422480       -0.6713750085
 C         -2.3149222779       -2.0391776064       -0.2458817066
 N         -4.1677549083       -0.4161585077       -0.0888130666
 C         -5.5762094507       -0.0379905972       -0.3558119059
 C         -5.5887724555        1.4642923581       -0.1235300409
 C         -4.2838832848        1.8996859446       -0.7864958283
 C         -3.3147911334        0.7472819831       -0.4610699147
 C         -2.4665054183        1.0579618892        0.7865259329
 O         -2.7839811037        0.5075816313        1.8452539066
 N         -1.4632506501        1.9172708110        0.6781118278
 C         -0.6252809631        2.1841802371        1.8399073618
 C          0.8488930599        2.2634406422        1.4302152458
 C          1.0893364488        1.2829095026        0.2784916824
 C          0.3260155212        1.7616400947       -0.9710740267
 C         -0.9579698449        2.4957330526       -0.5491244891
 N          2.4943650249        1.1151981531       -0.0072110587
 C          3.4148044729        2.0967121619       -0.2318782366
 N          4.6097674781        1.6600863693       -0.4901828471
 C          4.5066853616        0.2887604620       -0.4446560382
 C          3.1707018524       -0.0649828823       -0.1415695246
 C          2.8367335403       -1.4180059717       -0.0511008543
 C          1.7063727709       -2.2353994129        0.2086674734
 C          2.1305604857       -3.5303201379        0.1287063872
 N          3.4594539179       -3.5714105356       -0.1690281843
 C          3.9266607272       -2.3009961928       -0.2849100663
 N          5.1930883392       -1.9801112350       -0.5707374862
 C          5.4778007973       -0.6975963957       -0.6484859863
 H         -2.6873702499        0.4877458125       -1.3117890709
 H          4.0203516810       -4.3988322355       -0.2814607541
 H         -3.8009669567       -1.6241293775       -1.7601220174
 H         -4.0222538759       -0.4679933271        0.9504121843
 H         -5.8059634662       -0.2671013760       -1.3973891494
 H         -6.2545375888       -0.5766791582        0.3000196106
 H         -5.5691427396        1.6864061386        0.9435901570
 H         -6.4592111358        1.9431846725       -0.5618099751
 H         -4.4190751626        1.9844998320       -1.8637958960
 H         -3.9314365614        2.8538661565       -0.4033694075
 H         -0.9399427605        3.1196236324        2.3107271653
 H         -0.7878717932        1.3733498287        2.5535199925
 H          1.1116316137        3.2731102981        1.1166084695
 H          1.4767096654        2.0062994034        2.2826343730
 H          0.7264081635        0.2981425818        0.5863004125
 H          0.9571879291        2.4398099951       -1.5451606522
 H          0.1000473447        0.9049666413       -1.6060397066
 H         -1.7002177108        2.4598769932       -1.3409705104
 H         -0.7377237125        3.5451676477       -0.3446844309
 H          3.1707156034        3.1394447229       -0.1939931066
 H          0.7089096475       -1.9207275300        0.4371501482
 H          1.5719161267       -4.4345991634        0.2653342218
 H          6.5007042475       -0.4390739041       -0.8788187174
 H         -2.2327460548       -2.0416022123        0.8391136868
 H         -2.0413388807       -3.0261241103       -0.6064427644
 H         -1.5953536668       -1.3329446724       -0.6500134764
 H         -4.7129933340       -2.8724509290        0.8815771028
 H         -5.6946707307       -2.6873611896       -0.5807543163
 H         -4.3269088521       -3.7805325605       -0.5710146810
  57
        -81.17731453
 C         -5.5788052910       -0.8645884903        1.4030266507
 C         -5.2595920617        0.2434936103        0.4083781758
 C         -6.4858203388        0.6324078561       -0.4060849790
 N         -4.1514323248       -0.1337035421       -0.5204813858
 C         -4.3035701580       -1.4034931585       -1.2656233884
 C         -2.8910645198       -1.6768474769       -1.7556811903
 C         -2.0518922889       -1.3230432917       -0.5280628324
 C         -2.7910784388       -0.1180076495        0.0863528357
 C         -2.1831256946        1.2386235270       -0.3149219040
 O         -2.7384322472        1.8663444718       -1.2236189037
 N         -1.1252509322        1.6823312330        0.3502233289
 C         -0.6016816388        3.0091493921        0.0775403664
 C          0.8747550716        2.9706464134       -0.3341462464
 C          1.6384959198        1.8691712402        0.4131651880
 C          0.9086425628        1.5318067431        1.7200279944
 C         -0.4782201264        0.9538168080        1.4315107437
 N          1.7953969903        0.6688840705       -0.3858603271
 C          1.0432440205        0.2183828990       -1.4288014217
 N          1.4075354314       -0.9418165108       -1.8898419963
 C          2.4781361355       -1.3170049494       -1.1133530605
 C          2.7278645643       -0.3052286811       -0.1571747946
 C          3.7765010375       -0.4778553977        0.7476017507
 C          4.3838799173        0.2053071187        1.8319684297
 C          5.4086798676       -0.5850130507        2.2665731055
 N          5.4748402526       -1.7238365208        1.5201229566
 C          4.4936592919       -1.6945953493        0.5807860915
 N          4.2692698749       -2.6570743511       -0.3197814378
 C          3.2708855941       -2.4694352439       -1.1561498559
 H         -2.8605094309       -0.1885647869        1.1714295434
 H          6.1399987841       -2.4702310198        1.6322945411
 H         -4.9037490241        1.1278131977        0.9466704404
 H         -4.0745714095        0.6445122969       -1.2209154159
 H         -4.6221503310       -2.1856477848       -0.5787312086
 H         -5.0282972341       -1.2945403462       -2.0680611218
 H         -2.6372911784       -1.0241551158       -2.5910526382
 H         -2.7475701506       -2.7064592801       -2.0686601458
 H         -2.0457586453       -2.1545987863        0.1751363278
 H         -1.0251877942       -1.0980846688       -0.8062586532
 H         -1.2077432464        3.4535386108       -0.7126506516
 H         -0.7208336404        3.6095207476        0.9831069756
 H          0.9763039342        2.8259296001       -1.4090570630
 H          1.3168268566        3.9373610183       -0.0977922528
 H          2.6519238333        2.2126814902        0.6422739709
 H          1.4804414654        0.7983577689        2.2882635697
 H          0.8399828955        2.4407346669        2.3155718806
 H         -1.0865936110        1.0138011427        2.3400808537
 H         -0.3761788875       -0.0949738066        1.1487303435
 H          0.2296384539        0.7760874063       -1.8480895636
 H          4.1083268089        1.1564646901        2.2402972950
 H          6.1017792780       -0.4109949168        3.0654985517
 H          3.0933499789       -3.2488957705       -1.8817518878
 H         -6.8915172834       -0.2204752280       -0.9421547363
 H         -7.2579341446        1.0045266812        0.2605148075
 H         -6.2487697604        1.4212649780       -1.1160381486
 H         -6.1520343257       -1.6608684529        0.9377113932
 H         -4.6828835065       -1.2854637057        1.8498624700
 H         -6.1855499683       -0.4514350304        2.2033939095
  57
        -81.17731274
 C         -4.4017087339        0.1880612758        2.1784669820
 C         -5.3255802844       -0.1967990840        1.0289695005
 C         -5.4462566431       -1.7075636937        0.8873073151
 N         -4.8623307945        0.4614088916       -0.2337320248
 C         -5.7796249688        0.2926913724       -1.3963936744
 C         -5.0313330879       -0.6264860954       -2.3518111145
 C         -3.5894262745       -0.1560209861       -2.1856562435
 C         -3.4837684305        0.1157782202       -0.6761732056
 C         -2.6185202266        1.3498765255       -0.3652668480
 O         -3.2090338078        2.3884733587       -0.0488358494
 N         -1.3018093994        1.2615867310       -0.4788201371
 C         -0.4656144964        2.4110647185       -0.1869556993
 C          0.4203607459        2.1388548351        1.0320792240
 C          1.1871037180        0.8143223995        0.9592510369
 C          0.2515862091       -0.3183548677        0.5076825327
 C         -0.5252332971        0.0710448236       -0.7499984427
 N          2.3634559189        0.8685421842        0.1105843496
 C          2.7532904052        1.7934836416       -0.8115666187
 N          3.8744848125        1.5190891297       -1.4078358340
 C          4.2915931284        0.3301446241       -0.8578798867
 C          3.3465647686       -0.0851927770        0.1083574528
 C          3.5872650624       -1.2628127699        0.8197802084
 C          2.9919147817       -2.0420540614        1.8456030034
 C          3.8198387410       -3.1059852442        2.0599248938
 N          4.8960798933       -3.0402948022        1.2261650181
 C          4.7917764643       -1.9255431950        0.4565233468
 N          5.6861808393       -1.5498472508       -0.4638197448
 C          5.4373481230       -0.4318865741       -1.1118499037
 H         -3.1378926424       -0.7619783125       -0.1340354104
 H          5.6581928805       -3.6954957585        1.1838016180
 H         -6.3169556556        0.2216924057        1.2258712775
 H         -4.7676801140        1.4819674437       -0.0136181758
 H         -6.7376662027       -0.1054646570       -1.0728637849
 H         -5.9402742574        1.2649306389       -1.8617772917
 H         -5.3844485006       -0.5252775253       -3.3740135757
 H         -5.1274633046       -1.6690823471       -2.0536680096
 H         -2.8725308919       -0.8973520168       -2.5264013982
 H         -3.4253122931        0.7652910969       -2.7453907813
 H          0.1311723914        2.6272955654       -1.0756495104
 H         -1.1133906769        3.2658592475        0.0140254111
 H          1.1153190839        2.9675009519        1.1652122976
 H         -0.2163812743        2.0961650944        1.9170298214
 H          1.5609223569        0.5788331248        1.9636760962
 H          0.8323282098       -1.2185526498        0.3107178605
 H         -0.4458391225       -0.5265345588        1.3194795596
 H         -1.1590201346       -0.7509135215       -1.0679028576
 H          0.1750127233        0.2969279120       -1.5599418833
 H          2.2054387518        2.6889105295       -1.0197130125
 H          2.0803504883       -1.8414785653        2.3699758665
 H          3.7149354419       -3.9133017970        2.7570900445
 H          6.1639836465       -0.1256427485       -1.8496810008
 H         -5.8300995271       -2.1106178298        1.8201497791
 H         -6.1398130149       -1.9864960850        0.1006838451
 H         -4.4874425218       -2.1806130872        0.6979386826
 H         -3.4415872559       -0.3158028099        2.1112935256
 H         -4.2325280676        1.2622270368        2.2034049128
 H         -4.8603122168       -0.0994728670        3.1197525721
  57
        -81.17730646
 C         -4.6837686930       -2.8198332410       -0.2423838157
 C         -3.7437182340       -1.7092140966       -0.6947568047
 C         -2.3134863309       -2.0311988877       -0.2764085674
 N         -4.1681299832       -0.4132266926       -0.0922474766
 C         -5.5779035016       -0.0333980057       -0.3497013752
 C         -5.5919262338        1.4652796593       -0.0951843641
 C         -4.2897584851        1.9123653046       -0.7557484250
 C         -3.3180166480        0.7566763928       -0.4504399359
 C         -2.4656676313        1.0502316210        0.7985001781
 O         -2.7796142245        0.4852655900        1.8505726121
 N         -1.4630757716        1.9113436553        0.6985854168
 C         -0.6204413716        2.1617290940        1.8606040415
 C          0.8524227077        2.2431683337        1.4465567893
 C          1.0866518318        1.2783318067        0.2802096650
 C          0.3191468227        1.7750542531       -0.9597021669
 C         -0.9615704207        2.5059158263       -0.5224777045
 N          2.4905203555        1.1131051638       -0.0125281139
 C          3.4084171894        2.0969402111       -0.2375497080
 N          4.6038833846        1.6632859595       -0.4984050509
 C          4.5040755009        0.2917036265       -0.4535658425
 C          3.1693965741       -0.0654131516       -0.1485740029
 C          2.8388339347       -1.4193387674       -0.0586019401
 C          1.7108110708       -2.2397742745        0.2018427604
 C          2.1382201380       -3.5335714771        0.1209344081
 N          3.4669347795       -3.5711472171       -0.1780527448
 C          3.9307406801       -2.2995045574       -0.2939310341
 N          5.1960475240       -1.9753778776       -0.5810180517
 C          5.4774077841       -0.6921359407       -0.6590252132
 H         -2.6933111017        0.5102649469       -1.3070273973
 H          4.0299037906       -4.3970772605       -0.2912045577
 H         -3.8027834803       -1.5958264054       -1.7818359611
 H         -4.0196583838       -0.4796512099        0.9456756535
 H         -5.8102331871       -0.2474300606       -1.3939052938
 H         -6.2535473316       -0.5827756510        0.3000141003
 H         -5.5691886045        1.6716293325        0.9750269723
 H         -6.4644451887        1.9493057657       -0.5235465202
 H         -4.4285125767        2.0128801824       -1.8312526176
 H         -3.9373654614        2.8612789735       -0.3596793465
 H         -0.9313839420        3.0917806262        2.3443487788
 H         -0.7821606266        1.3422523534        2.5644491861
 H          1.1168038702        3.2564277281        1.1461486147
 H          1.4827516367        1.9725371050        2.2929508524
 H          0.7237635357        0.2898740793        0.5758333183
 H          0.9490832585        2.4594848450       -1.5276073165
 H          0.0886568229        0.9273173916       -1.6049587971
 H         -1.7070861205        2.4827359779       -1.3117321283
 H         -0.7383198972        3.5519204029       -0.3042013085
 H          3.1620348793        3.1390847429       -0.1983335310
 H          0.7125997505       -1.9278830801        0.4310928556
 H          1.5819808322       -4.4393083124        0.2575258665
 H          6.4994165196       -0.4310191317       -0.8903194478
 H         -1.5956203363       -1.3172954633       -0.6699728377
 H         -2.2298614845       -2.0508903187        0.8083029271
 H         -2.0387033888       -3.0117387305       -0.6531427770
 H         -5.6928444749       -2.6792293550       -0.6154090673
 H         -4.3234094926       -3.7703518446       -0.6240839947
 H         -4.7086146179       -2.8846375317        0.8424754710
  57
        -81.17720647
 C         -7.4073178118        0.9250552081       -0.1768170489
 C         -5.9707132159        1.3938541628        0.0202596231
 C         -5.3412911126        1.7264731518       -1.3275515599
 N         -5.1810860084        0.3267750726        0.6988723151
 C         -5.7621475007       -0.1653525332        1.9712839348
 C         -4.5777805636       -0.7987588908        2.6829451556
 C         -3.4641692731        0.2067080942        2.4008903180
 C         -3.7530111835        0.6633564753        0.9597475807
 C         -2.9388309341       -0.1453199321       -0.0658025105
 O         -3.5379903585       -1.0037314418       -0.7227595045
 N         -1.6405508194        0.0909406690       -0.1922668458
 C         -0.8752661323       -0.7382531644       -1.1159784614
 C          0.5556581754       -0.8897297451       -0.6251327557
 C          1.2705807816        0.4728814282       -0.6499701373
 C          0.2779132277        1.5906948197       -0.3003448302
 C         -0.8829227518        1.0823281145        0.5523847006
 N          2.4128097525        0.4413187832        0.2400619860
 C          2.4869291329        0.7910102348        1.5559203209
 N          3.6456525357        0.5781105339        2.1029495343
 C          4.4183878378        0.0337606772        1.1042452527
 C          3.6434342122       -0.0638012490       -0.0752743226
 C          4.2279461150       -0.6036073519       -1.2221038696
 C          3.8833881671       -0.9081057767       -2.5640415313
 C          4.9967175543       -1.4466487515       -3.1416932941
 N          6.0170110405       -1.4981697088       -2.2391387574
 C          5.5847279843       -0.9935300385       -1.0538888876
 N          6.3302357017       -0.9014556051        0.0524183411
 C          5.7503453291       -0.3938786445        1.1194816524
 H         -3.5964400486        1.7336095003        0.8337134699
 H          6.9436366497       -1.8517881899       -2.4072685300
 H         -5.9558330878        2.2724244584        0.6730271437
 H         -5.0924551976       -0.4779417613        0.0282502988
 H         -6.1342224595        0.6902329775        2.5366129721
 H         -6.5713882887       -0.8655311688        1.7835782417
 H         -4.3407427546       -1.7677044676        2.2429922448
 H         -4.7583438827       -0.9346550794        3.7450617985
 H         -3.5341123385        1.0511965088        3.0844545888
 H         -2.4788825140       -0.2388320697        2.5025376690
 H         -1.3697460411       -1.7098638108       -1.1821274294
 H         -0.8879516399       -0.2876934466       -2.1133456487
 H          0.5580277007       -1.2835847241        0.3928169556
 H          1.0862705779       -1.6041907922       -1.2530188839
 H          1.6774173667        0.6561962119       -1.6489526703
 H          0.7923532295        2.3956499346        0.2228098222
 H         -0.1226217164        2.0053611731       -1.2250942663
 H         -1.5225459095        1.9234004785        0.8147192448
 H         -0.5020292011        0.6390300333        1.4775373158
 H          1.6680815330        1.2196778075        2.0966508019
 H          2.9398600438       -0.7545913968       -3.0472107750
 H          5.1328929555       -1.8004763594       -4.1442862974
 H          6.3538431011       -0.3228567906        2.0122119019
 H         -5.2714230524        0.8342020715       -1.9458795529
 H         -5.9636356369        2.4483521248       -1.8474000107
 H         -4.3493521205        2.1573912713       -1.2312293983
 H         -7.4344442515       -0.0015771639       -0.7445302519
 H         -7.9256222362        0.7826369896        0.7656639488
 H         -7.9533909817        1.6757381598       -0.7401589968
  57
        -81.17717104
 C         -5.3797278091        1.4331168669        0.6354904651
 C         -5.3640510875       -0.0488231432        0.2838308458
 C         -5.3831590894       -0.9133282177        1.5384830794
 N         -4.1935582138       -0.3415285289       -0.5989724882
 C         -4.2715865437       -1.6314078632       -1.3251060536
 C         -2.8326176193       -1.8855859521       -1.7414715702
 C         -2.0614838168       -1.4611406592       -0.4929919036
 C         -2.8413968428       -0.2341289580        0.0167075840
 C         -2.2634465032        1.0982009807       -0.4937995843
 O         -2.8175651212        1.6272628785       -1.4635829932
 N         -1.2309741540        1.6301255741        0.1468115057
 C         -0.7431367502        2.9445960092       -0.2310872111
 C          0.7405623742        2.9174105625       -0.6168317909
 C          1.5221808431        1.9027322197        0.2284457034
 C          0.7844916333        1.6572786239        1.5512470741
 C         -0.5839814962        1.0208752896        1.2991128771
 N          1.7206312271        0.6449760070       -0.4662333172
 C          0.9975256277        0.0917692539       -1.4800175727
 N          1.4025083947       -1.0892089299       -1.8439162065
 C          2.4720723867       -1.3698552586       -1.0273158015
 C          2.6777510469       -0.2795631520       -0.1501912926
 C          3.7171715241       -0.3498376132        0.7786705077
 C          4.2871906340        0.4327020780        1.8151495367
 C          5.3273051480       -0.2906962102        2.3236200633
 N          5.4385753175       -1.4807852340        1.6681286585
 C          4.4721055838       -1.5534878222        0.7160507431
 N          4.2902726058       -2.5889707277       -0.1100494941
 C          3.2994156128       -2.4970284683       -0.9710352387
 H         -2.9172112169       -0.2223555248        1.1018238271
 H          6.1244553816       -2.1950210306        1.8454280710
 H         -6.2450242875       -0.2802859706       -0.3218135346
 H         -4.1482281729        0.4252023755       -1.3164691747
 H         -4.6123368661       -2.4090878506       -0.6424746566
 H         -4.9630534600       -1.5552294293       -2.1610265480
 H         -2.5574702166       -1.2587480057       -2.5896658486
 H         -2.6493577375       -2.9222649225       -2.0066492074
 H         -2.0879060507       -2.2538574400        0.2534303960
 H         -1.0231692667       -1.2410795812       -0.7283241826
 H         -1.3490503501        3.3009758084       -1.0647824920
 H         -0.8954048140        3.6157473340        0.6181636489
 H          0.8647953432        2.6895731499       -1.6748340751
 H          1.1512284596        3.9125705141       -0.4529033866
 H          2.5234212674        2.2910690090        0.4390905701
 H          1.3675837830        0.9901221237        2.1858146245
 H          0.6854927930        2.6114845786        2.0663451636
 H         -1.2070271177        1.1500753164        2.1905892176
 H         -0.4531069335       -0.0467325563        1.1170455575
 H          0.1739837721        0.5893337296       -1.9520653919
 H          3.9776494037        1.4036908288        2.1449169086
 H          6.0016836720       -0.0357928403        3.1168382461
 H          3.1559036718       -3.3346298085       -1.6369476811
 H         -6.3629973647       -0.8310534827        1.9994708754
 H         -5.2122942132       -1.9621494553        1.3182393624
 H         -4.6527079730       -0.5830209513        2.2713188777
 H         -4.5429160024        1.6981829110        1.2765366597
 H         -5.3387907285        2.0514521963       -0.2582167171
 H         -6.2963921171        1.6698392864        1.1668844500
  57
        -81.17678428
 C         -5.8857168357        2.2601226879        1.7347609185
 C         -4.6378019278        1.3879051776        1.6715230395
 C         -3.3935822452        2.2630136709        1.5697635351
 N         -4.7167323646        0.4799826421        0.4918320536
 C         -5.9410268151       -0.3530449113        0.4215640272
 C         -5.5472704593       -1.4807414490       -0.5186463740
 C         -4.1306414136       -1.8058705326       -0.0504101618
 C         -3.5483636066       -0.4273305024        0.3157260467
 C         -2.7299872222        0.1690556815       -0.8449965367
 O         -3.2590700072        1.0574249095       -1.5202868939
 N         -1.5187711706       -0.3121131004       -1.0847069257
 C         -0.7167484850        0.2777989473       -2.1482610534
 C          0.7475111051        0.4048048144       -1.7164461535
 C          0.8083122777        0.6746275541       -0.2088123098
 C          0.2514558975       -0.5260753921        0.5771842638
 C         -0.7968107423       -1.2651348869       -0.2686882267
 N          2.1463983337        1.0125529300        0.2158814740
 C          2.5157518946        2.2286861957        0.7104309668
 N          3.7761295802        2.3357768599        0.9948014578
 C          4.3153213602        1.1136854883        0.6698838319
 C          3.2948173846        0.2642675845        0.1736375977
 C          3.6471260823       -1.0348637296       -0.2096322069
 C          3.0447478445       -2.2114872070       -0.7286103409
 C          4.0354625611       -3.1399405994       -0.8646966587
 N          5.2255187271       -2.6166549250       -0.4601653316
 C          5.0295301966       -1.3357526048       -0.0528598827
 N          5.9975259985       -0.5385762994        0.4099260938
 C          5.6394999255        0.6749400052        0.7687559458
 H         -2.9650251421       -0.4602892195        1.2341716574
 H          6.1149392787       -3.0866709991       -0.4569379842
 H         -4.5838927179        0.7559715478        2.5636893626
 H         -4.6610089414        1.0746541077       -0.3724858137
 H         -6.1546307813       -0.7412897523        1.4184573967
 H         -6.7859396518        0.2272360170        0.0612628243
 H         -5.5390930177       -1.1319575538       -1.5514640365
 H         -6.2163477851       -2.3327924818       -0.4451895334
 H         -4.1629421072       -2.4462058581        0.8299165696
 H         -3.5517238543       -2.3046100611       -0.8233689657
 H         -0.7936232860       -0.3381829169       -3.0486306072
 H         -1.1431829288        1.2582842807       -2.3717809711
 H          1.3101248195       -0.4966751455       -1.9511667738
 H          1.2122904106        1.2288370898       -2.2577545340
 H          0.2016648145        1.5640706700       -0.0012394029
 H          1.0615758472       -1.2080564994        0.8299710937
 H         -0.1834232530       -0.1719432256        1.5117783826
 H         -1.4684296358       -1.8360554011        0.3655713675
 H         -0.3075470343       -1.9637746612       -0.9502078759
 H          1.8101273953        3.0242226636        0.8499337305
 H          2.0158053178       -2.3724527944       -0.9731253841
 H          3.9711791889       -4.1472152392       -1.2251376125
 H          6.4169121580        1.3232797363        1.1446963817
 H         -2.4738702089        1.6872198782        1.6154455652
 H         -3.4019377023        2.8304299223        0.6416503566
 H         -3.3803738098        2.9683096053        2.3951126727
 H         -6.0075300644        2.8240873337        0.8133953442
 H         -6.7828821135        1.6786915473        1.9197127940
 H         -5.7834857858        2.9717178771        2.5485866406
  57
        -81.17675745
 C         -6.0607635517        2.1920359454        1.6198283219
 C         -4.7744261672        1.3749599395        1.6171685683
 C         -3.5669352166        2.3024946566        1.5420526601
 N         -4.7710561514        0.4443272588        0.4526981550
 C         -5.9578033453       -0.4387960110        0.3528132561
 C         -5.4829914319       -1.5691924081       -0.5456600079
 C         -4.0747635869       -1.8266300830       -0.0146694626
 C         -3.5611889374       -0.4171212652        0.3355784126
 C         -2.7319055034        0.1846702748       -0.8147689754
 O         -3.2711308706        1.0436978819       -1.5197654232
 N         -1.5006237765       -0.2607283967       -1.0168433824
 C         -0.7063713247        0.3209782230       -2.0916381535
 C          0.7655767495        0.4284147466       -1.6867429986
 C          0.8565104506        0.7374346045       -0.1884890853
 C          0.2834165310       -0.4273175783        0.6388137520
 C         -0.7713081482       -1.1882199154       -0.1786709251
 N          2.2097722571        1.0541081629        0.2043451129
 C          2.6180259743        2.2754362536        0.6531677706
 N          3.8860162815        2.3602718097        0.9099757001
 C          4.3892036097        1.1158370183        0.6136581654
 C          3.3389052307        0.2767201380        0.1641112887
 C          3.6524262578       -1.0422740706       -0.1834875472
 C          3.0120253282       -2.2197827672       -0.6524793844
 C          3.9771270020       -3.1765186465       -0.7763040991
 N          5.1868836339       -2.6701499943       -0.4110701887
 C          5.0299170870       -1.3721690136       -0.0426897930
 N          6.0257388321       -0.5847709026        0.3753734851
 C          5.7041965826        0.6480711170        0.7013364648
 H         -3.0058747751       -0.4035586745        1.2717844061
 H          6.0648392794       -3.1611831396       -0.4091888550
 H         -4.7250902896        0.7616747971        2.5225051548
 H         -4.7062824728        1.0263895645       -0.4199137983
 H         -6.1956405206       -0.8148544785        1.3488766063
 H         -6.8098097515        0.0996032193       -0.0529206242
 H         -5.4470067690       -1.2420438199       -1.5849679337
 H         -6.1205283177       -2.4456724341       -0.4792355092
 H         -4.1174838047       -2.4446582232        0.8810441275
 H         -3.4475347909       -2.3222842499       -0.7509022298
 H         -0.8069531235       -0.2910465189       -2.9926444497
 H         -1.1230174084        1.3077559269       -2.3070560247
 H          1.3065091299       -0.4900519953       -1.9065003309
 H          1.2369904313        1.2283761389       -2.2577487243
 H          0.2748502513        1.6466020136        0.0038425135
 H          1.0849860221       -1.1089676956        0.9187746520
 H         -0.1503290152       -0.0343201629        1.5582046604
 H         -1.4373550523       -1.7378751225        0.4795916806
 H         -0.2877246007       -1.9087582705       -0.8414720495
 H          1.9347994779        3.0922762924        0.7808730020
 H          1.9750229200       -2.3627106608       -0.8722991754
 H          3.8816273703       -4.1930880281       -1.1022192696
 H          6.5042497177        1.2885824764        1.0414640118
 H         -2.6250021703        1.7693120589        1.6309404375
 H         -3.5668989261        2.8520088136        0.6031807512
 H         -3.6142384327        3.0226174007        2.3531818527
 H         -6.9378402125        1.5750813361        1.7849791048
 H         -6.0186784195        2.9222322826        2.4224246520
 H         -6.1742523321        2.7331858542        0.6838283711
  57
        -81.17656686
 C         -6.1322473200       -1.0273230094        1.5174527542
 C         -5.6500117281        0.3916913502        1.2468090888
 C         -6.7506173097        1.4130157570        1.4996877511
 N         -5.1361682587        0.5570649977       -0.1463597269
 C         -6.0401719255        0.1527027836       -1.2465957768
 C         -5.0992795728        0.0466374852       -2.4358712824
 C         -3.8846980890       -0.6499958030       -1.8217656918
 C         -3.8036950757       -0.0541493338       -0.4023275571
 C         -2.7973297096        1.1084852129       -0.3271797925
 O         -3.2505254339        2.2584779300       -0.3474150787
 N         -1.5059564780        0.8225081825       -0.2487143823
 C         -0.5424913025        1.9093269447       -0.1529803761
 C          0.5093312104        1.5749541439        0.8979274916
 C          1.3104148805        0.3194466998        0.5171205306
 C          0.5136609221       -0.5332245896       -0.4845366548
 C         -0.9703370886       -0.5275214389       -0.1383176314
 N          2.6082518005        0.6388646576       -0.0392369010
 C          2.9617254120        1.6954227063       -0.8250709913
 N          4.2017991825        1.6841395597       -1.2118869246
 C          4.7355480475        0.5388155755       -0.6681341982
 C          3.7311160862       -0.1332575994        0.0667746869
 C          4.0479574836       -1.3395410080        0.6937310952
 C          3.4220015226       -2.3421933510        1.4781457689
 C          4.3750150983       -3.2820011178        1.7459716262
 N          5.5600799958       -2.9264237327        1.1740112092
 C          5.3990640143       -1.7464608811        0.5198383149
 N          6.3614380564       -1.1151701112       -0.1613035950
 C          6.0299171999        0.0140766042       -0.7506187801
 H         -3.5781419986       -0.8045256696        0.3540240115
 H          6.4217939506       -3.4435596289        1.2181772449
 H         -4.8037007058        0.6221184049        1.9016838460
 H         -4.9193932053        1.5786018242       -0.2635513306
 H         -6.4693314105       -0.8210968475       -1.0170317281
 H         -6.8316341232        0.8846972860       -1.3834471893
 H         -4.8277679155        1.0378437322       -2.8000659733
 H         -5.5300361649       -0.5183776898       -3.2571326153
 H         -4.0532905684       -1.7244823490       -1.7695355168
 H         -2.9842744423       -0.4646604581       -2.4016822576
 H         -0.0819230936        2.0780369752       -1.1304889757
 H         -1.0891110764        2.8134089892        0.1229067890
 H          1.1790213172        2.4235550441        1.0300362806
 H          0.0090209103        1.4045406572        1.8512973193
 H          1.5127798570       -0.2644761511        1.4196536255
 H          0.6615009032       -0.1389020895       -1.4909077035
 H          0.8856979164       -1.5572545767       -0.4754034870
 H         -1.1015044841       -0.8928620652        0.8860696059
 H         -1.4938298401       -1.1945483726       -0.8219353332
 H          2.2796695132        2.4762837882       -1.0950579288
 H          2.4026754419       -2.3747238676        1.8044964287
 H          4.2889299724       -4.1894243812        2.3098873323
 H          6.8071776813        0.5198582615       -1.3041337676
 H         -6.4005512413        2.4225419971        1.2971660569
 H         -7.6266388294        1.2102609001        0.8906146620
 H         -7.0524670366        1.3678056491        2.5417665471
 H         -5.4300536749       -1.7745058543        1.1596828898
 H         -6.2401105815       -1.1610011767        2.5898485660
 H         -7.1042697308       -1.2078672340        1.0682089961
  57
        -81.17654385
 C         -5.0063760968        0.8900910975        2.2363703416
 C         -5.8276926973        0.2578854282        1.1199332766
 C         -5.9773602285       -1.2439625939        1.3285255922
 N         -5.2172909115        0.5981267856       -0.2012015275
 C         -6.0963452970        0.3706064732       -1.3727210957
 C         -5.1230872913        0.3423503081       -2.5396633342
 C         -3.9615954740       -0.4665624708       -1.9636885822
 C         -3.8850003819        0.0068568440       -0.4994170700
 C         -2.8753059369        1.1566572223       -0.3351393711
 O         -3.3231230246        2.3073926271       -0.2807904837
 N         -1.5854685539        0.8599048921       -0.2665654196
 C         -0.6182554572        1.9340875531       -0.0968198187
 C          0.4225226221        1.5343175244        0.9421034416
 C          1.2186902796        0.2955709045        0.4998597604
 C          0.4311174347       -0.4897753048       -0.5621631123
 C         -1.0572125245       -0.4970451981       -0.2354437062
 N          2.5272443156        0.6355067564       -0.0174752686
 C          2.8904343890        1.7183019977       -0.7622114868
 N          4.1358270912        1.7213405479       -1.1311466443
 C          4.6636068687        0.5594086257       -0.6178450178
 C          3.6500363735       -0.1378513519        0.0803582133
 C          3.9618882866       -1.3617623489        0.6751407933
 C          3.3292297890       -2.3881505628        1.4227452854
 C          4.2822680773       -3.3314478294        1.6781440945
 N          5.4734234657       -2.9561687257        1.1322737310
 C          5.3167999484       -1.7592128524        0.5086929296
 N          6.2864540486       -1.1062383416       -0.1409494168
 C          5.9600204798        0.0398364189       -0.6997674688
 H         -3.6643336233       -0.8059605469        0.1880866630
 H          6.3361586099       -3.4717545476        1.1734130787
 H         -6.8209211771        0.7158982741        1.1052464121
 H         -4.9783284765        1.6222915367       -0.1773128725
 H         -6.5928938997       -0.5934438472       -1.2688554822
 H         -6.8442189746        1.1569097574       -1.4449827301
 H         -4.7976170609        1.3519782845       -2.7916437827
 H         -5.5503842200       -0.1164596844       -3.4262822108
 H         -4.1877988998       -1.5311118150       -2.0018660767
 H         -3.0387685140       -0.2841510520       -2.5081972840
 H         -0.1476856767        2.1587929675       -1.0581617525
 H         -1.1637482039        2.8225972790        0.2275189910
 H          1.0972807613        2.3694743340        1.1247841749
 H         -0.0865032400        1.3164927906        1.8811418865
 H          1.4025124558       -0.3420149099        1.3691913214
 H          0.5944426161       -0.0360901449       -1.5407527565
 H          0.7980205270       -1.5146604133       -0.6100014436
 H         -1.2021070196       -0.9255048373        0.7624615555
 H         -1.5747116654       -1.1176295803       -0.9659387270
 H          2.2117309794        2.5077446848       -1.0152291147
 H          2.3056338421       -2.4337706924        1.7338297357
 H          4.1925704045       -4.2539300607        2.2165071867
 H          6.7431659669        0.5641803051       -1.2270749825
 H         -6.4502887449       -1.7322033942        0.4825923051
 H         -5.0241969452       -1.7250629934        1.5269014022
 H         -6.6094708979       -1.4094854994        2.1960250617
 H         -5.5234311623        0.7650979030        3.1828436241
 H         -4.0294503028        0.4221780107        2.3246401221
 H         -4.8652680169        1.9552943608        2.0680952780
  57
        -81.17641829
 C         -5.0406010355       -2.6895268724       -0.3688863571
 C         -4.0269042283       -1.6337201151       -0.7929366144
 C         -2.6140934431       -2.1051330554       -0.4666327795
 N         -4.3111747653       -0.3522665027       -0.0857075346
 C         -5.6919480381        0.1617568103       -0.2516541824
 C         -5.5652781991        1.6378167562        0.0899292491
 C         -4.2562135858        2.0130239804       -0.6005713855
 C         -3.3776648561        0.7655409063       -0.4005445303
 C         -2.4618647460        0.9031375592        0.8294167586
 O         -2.7704872984        0.2670198736        1.8419220006
 N         -1.4108373260        1.7094582238        0.7609973450
 C         -0.5367559071        1.8477474212        1.9120979554
 C          0.8111508836        1.1702880944        1.6294368092
 C          1.1388104451        1.2683504637        0.1276631858
 C          0.5528200052        2.5665848481       -0.4271754464
 C         -0.9778961669        2.4514855916       -0.4113706290
 N          2.5608237031        1.1556122012       -0.0941249895
 C          3.5012692436        2.1415642204       -0.1432576438
 N          4.7158753562        1.7129255800       -0.3113916423
 C          4.6080932635        0.3422784641       -0.3695752277
 C          3.2489309132       -0.0183957375       -0.2232079253
 C          2.9016714307       -1.3699421776       -0.2420846084
 C          1.7487198733       -2.1878307636       -0.1236348444
 C          2.1713108382       -3.4804892551       -0.2413040476
 N          3.5208989373       -3.5184520459       -0.4272229320
 C          4.0036441775       -2.2484044696       -0.4285439807
 N          5.2922360676       -1.9219631572       -0.5763518428
 C          5.5893667386       -0.6400230638       -0.5441065669
 H         -2.8060039981        0.5262762877       -1.2959072677
 H          4.0845452034       -4.3444353726       -0.5364578715
 H         -4.1226590518       -1.4401372429       -1.8660418730
 H         -4.1239501657       -0.5071428937        0.9370006411
 H         -5.9872086999        0.0339481156       -1.2940754629
 H         -6.3842643212       -0.3681203050        0.3967065036
 H         -5.4832575193        1.7751653798        1.1682785784
 H         -6.4086471640        2.2189379899       -0.2707143860
 H         -4.4244671128        2.1881100818       -1.6618189844
 H         -3.8081329516        2.9039908256       -0.1702087214
 H         -0.4004449171        2.9120594278        2.1113590529
 H         -1.0239612523        1.3903969891        2.7731335425
 H          1.5923130810        1.6667658820        2.2057268810
 H          0.7894248905        0.1236056756        1.9328133082
 H          0.6875896481        0.4234408269       -0.4044226177
 H          0.8850298361        3.4070256773        0.1807783775
 H          0.8929769452        2.7344197148       -1.4483713633
 H         -1.3072997437        1.9400288973       -1.3142159651
 H         -1.4178275114        3.4530163215       -0.4014808310
 H          3.2579017637        3.1814782329       -0.0618827254
 H          0.7393848833       -1.8719619798        0.0439277902
 H          1.5986239506       -4.3855359516       -0.2041533521
 H          6.6310314594       -0.3794825929       -0.6597363586
 H         -1.8517449585       -1.4360527917       -0.8551249412
 H         -2.4815211626       -2.1972990864        0.6092596281
 H         -2.4480004360       -3.0815831607       -0.9111397702
 H         -6.0490422263       -2.4372102282       -0.6795739060
 H         -4.7836839689       -3.6378755344       -0.8311203183
 H         -5.0220050613       -2.8287701351        0.7090761708
  57
        -81.17641011
 C         -4.9906530189       -2.7026874287       -0.4233068140
 C         -3.9897599544       -1.6281200984       -0.8302833927
 C         -2.5707892046       -2.0913605234       -0.5194008316
 N         -4.2846245565       -0.3644138386       -0.0959041514
 C         -5.6709138367        0.1391529203       -0.2480977202
 C         -5.5580804640        1.6096234978        0.1213559037
 C         -4.2544804947        2.0109042521       -0.5647719196
 C         -3.3630261056        0.7689866022       -0.3894686002
 C         -2.4474154704        0.8920786639        0.8422833007
 O         -2.7459214673        0.2301506312        1.8410986869
 N         -1.4073990503        1.7137295251        0.7904817050
 C         -0.5316715802        1.8359851230        1.9422177287
 C          0.8193189036        1.1708803740        1.6440421580
 C          1.1334943207        1.2848883935        0.1407188378
 C          0.5494734620        2.5931924368       -0.3920475461
 C         -0.9821275069        2.4848543909       -0.3655018149
 N          2.5525929843        1.1657325955       -0.0954800035
 C          3.4978401125        2.1462585019       -0.1578869636
 N          4.7079403155        1.7103898310       -0.3396247064
 C          4.5918177176        0.3402243951       -0.3935909044
 C          3.2324658356       -0.0124174658       -0.2303530564
 C          2.8771621632       -1.3619640002       -0.2410347374
 C          1.7212735152       -2.1729443343       -0.1047911830
 C          2.1352718502       -3.4683588767       -0.2225115028
 N          3.4820473075       -3.5145525540       -0.4261796649
 C          3.9717009326       -2.2472272100       -0.4384731638
 N          5.2600747706       -1.9284313376       -0.6035274734
 C          5.5650968626       -0.6483234383       -0.5778369165
 H         -2.7894663448        0.5527847480       -1.2894819916
 H          4.0397270713       -4.3441021786       -0.5390108090
 H         -4.0919957210       -1.4138768936       -1.8988609184
 H         -4.0935678038       -0.5391398772        0.9228486888
 H         -5.9679441065        0.0284639172       -1.2919724605
 H         -6.3561539601       -0.4098801141        0.3917927398
 H         -5.4748471075        1.7271837716        1.2019557195
 H         -6.4080750474        2.1890107248       -0.2263278677
 H         -4.4269341372        2.2035950683       -1.6223085860
 H         -3.8142516805        2.8982781343       -0.1191100720
 H         -0.4005505951        2.8974115032        2.1593208427
 H         -1.0144699571        1.3610128442        2.7961514052
 H          1.6016619884        1.6681021955        2.2180324300
 H          0.8079581651        0.1214265828        1.9381698406
 H          0.6720576248        0.4487963122       -0.3967488784
 H          0.8903380794        3.4232219744        0.2254196970
 H          0.8826650238        2.7738889320       -1.4133293251
 H         -1.3231124311        2.0004032342       -1.2786657054
 H         -1.4172518507        3.4876575980       -0.3232006687
 H          3.2611714491        3.1876339700       -0.0754777620
 H          0.7159715407       -1.8508488208        0.0746659292
 H          1.5582512795       -4.3701235949       -0.1742471415
 H          6.6068304646       -0.3946462459       -0.7073071673
 H         -2.3967532402       -3.0572585823       -0.9834982950
 H         -1.8170118230       -1.4073943871       -0.8985305287
 H         -2.4323327297       -2.2030831361        0.5538789022
 H         -6.0029984655       -2.4548022809       -0.7247802835
 H         -4.7258957609       -3.6389562156       -0.9052995157
 H         -4.9659014500       -2.8629295859        0.6516467465
  57
        -81.17639109
 C         -5.9944676243       -0.7671999514        2.1683094716
 C         -5.5160481362        0.6047592278        1.7110446662
 C         -6.5804159314        1.6700132958        1.9359318981
 N         -5.1089102668        0.6111360730        0.2736588047
 C         -6.1114173622        0.1313882228       -0.7056527001
 C         -5.2716297105       -0.1842297148       -1.9333848616
 C         -4.0510422225       -0.8656168422       -1.3161174144
 C         -3.8186338050       -0.0710558529       -0.0194635361
 C         -2.7905486054        1.0582121510       -0.2114838883
 O         -3.2204719493        2.2165734534       -0.2726512747
 N         -1.5065758807        0.7490072292       -0.3199635185
 C         -0.9525073119       -0.5915652910       -0.2190119692
 C          0.4983910376       -0.5188049950        0.2432426584
 C          1.3670997910        0.1882297107       -0.8115328152
 C          0.5684411579        1.3204829832       -1.4742028064
 C         -0.5510739947        1.8207458506       -0.5707031788
 N          2.5925394413        0.6549636830       -0.1971317807
 C          2.8595371964        1.8621900489        0.3774474479
 N          4.0427516672        1.9539298698        0.9057974538
 C          4.6258789029        0.7263529859        0.6936383868
 C          3.7118386374       -0.1038393562        0.0040953700
 C          4.0900924538       -1.4113909718       -0.3052840337
 C          3.5555458821       -2.5673305998       -0.9301966225
 C          4.5232102251       -3.5281909003       -0.8696848246
 N          5.6305486185       -3.0415813056       -0.2412824828
 C          5.4035468786       -1.7514666020        0.1196527876
 N          6.2806051366       -0.9745708436        0.7648209631
 C          5.8926997507        0.2505707113        1.0492282893
 H         -3.5330546886       -0.7090280268        0.8159684280
 H          6.4839062835       -3.5442570663       -0.0655123233
 H         -4.6186344242        0.8852482691        2.2717656472
 H         -4.8709972368        1.6085223592        0.0387797946
 H         -6.5760140691       -0.7763940900       -0.3248572730
 H         -6.8695273847        0.8897915105       -0.8820260115
 H         -4.9802703084        0.7332429496       -2.4453780993
 H         -5.7939613204       -0.8242753283       -2.6381524257
 H         -4.2747991560       -1.9056777324       -1.0850311683
 H         -3.1914226086       -0.8348589984       -1.9787875057
 H         -1.5238003443       -1.1794918712        0.4980474896
 H         -0.9949241713       -1.0918333274       -1.1913602822
 H          0.5592294629        0.0285530327        1.1851957119
 H          0.8771302605       -1.5244625001        0.4219392935
 H          1.6755479838       -0.5288462422       -1.5783097227
 H          1.2289041350        2.1471610334       -1.7318224454
 H          0.1322866665        0.9526388851       -2.4029434874
 H         -1.0909749457        2.6433696856       -1.0446758862
 H         -0.1540695356        2.1870378403        0.3807678072
 H          2.1607985597        2.6741660039        0.3862788542
 H          2.5861110640       -2.6825212744       -1.3701468377
 H          4.4984648476       -4.5358564679       -1.2341467408
 H          6.6009225970        0.8751899730        1.5731851467
 H         -6.2341081257        2.6448257299        1.6006636991
 H         -7.5037229983        1.4223082003        1.4205287591
 H         -6.8002826133        1.7415355544        2.9969323840
 H         -7.0032812307       -0.9715838119        1.8222182941
 H         -5.3356818371       -1.5637676248        1.8352850690
 H         -6.0138547988       -0.7863426266        3.2540704556
  57
        -81.17636437
 C         -5.8472690705       -2.0567677148       -0.8421738637
 C         -4.6728193067       -1.1158164319       -1.0823786593
 C         -3.3593870846       -1.8804036068       -0.9649747820
 N         -4.7034221239       -0.0068796534       -0.0865733189
 C         -5.9825821291        0.7403095521       -0.0214704098
 C         -5.5919238896        2.0572305268        0.6293217038
 C         -4.2710688470        2.3747281093       -0.0674150199
 C         -3.6068263471        0.9933730611       -0.2184865230
 C         -2.6382045845        0.7028950646        0.9434741686
 O         -3.0129643250       -0.0854167219        1.8179872111
 N         -1.4671978299        1.3209222221        0.9788871210
 C         -0.5739010841        1.0368360845        2.0972456982
 C          0.8800597677        1.3072793620        1.7233903456
 C          1.1512687575        0.7834122675        0.3085051382
 C          0.2747496340        1.5299861135       -0.7172624114
 C         -0.9210343949        2.2029247682       -0.0299089625
 N          2.5547511922        0.8978388381       -0.0167268319
 C          3.2806559006        2.0502976780       -0.0984530732
 N          4.5383110999        1.8731737472       -0.3664609772
 C          4.6920934449        0.5101304663       -0.4698253852
 C          3.4420875629       -0.1156687457       -0.2470760532
 C          3.3692160032       -1.5092402953       -0.3062770152
 C          2.4106101625       -2.5460873163       -0.1663332296
 C          3.0727829545       -3.7232553519       -0.3633541699
 N          4.3896546513       -3.4843103521       -0.6191542546
 C          4.6095041792       -2.1438192422       -0.5920230671
 N          5.7962838372       -1.5645958017       -0.8024194482
 C          5.8341569469       -0.2504490816       -0.7417775445
 H         -3.1140562621        0.8770491002       -1.1823337797
 H          5.0971065049       -4.1766210099       -0.7984583889
 H         -4.7604360039       -0.6626961075       -2.0749285584
 H         -4.5026613600       -0.4219182510        0.8583713897
 H         -6.3393473651        0.9074999062       -1.0387861342
 H         -6.7266767542        0.1880150267        0.5457324710
 H         -5.4380990613        1.9239713367        1.7003404960
 H         -6.3394953570        2.8303310434        0.4792642439
 H         -4.4579501551        2.8116705076       -1.0473486044
 H         -3.6615884605        3.0640977174        0.5107526988
 H         -0.8633570771        1.6456594206        2.9591611660
 H         -0.7126122344       -0.0123737492        2.3724260859
 H          1.1075529058        2.3717042265        1.7732627980
 H          1.5299042280        0.7993845180        2.4361088795
 H          0.9218305432       -0.2848744061        0.2876702503
 H          0.8651338999        2.2934622666       -1.2228233913
 H         -0.0695896995        0.8263539058       -1.4748350502
 H         -1.6717857355        2.4679972358       -0.7682917858
 H         -0.5995956291        3.1212907582        0.4662361925
 H          2.8480992716        3.0201757234        0.0463426784
 H          1.3673969132       -2.4494283448        0.0552890224
 H          2.6918952147       -4.7247887899       -0.3382912465
 H          6.7927312722        0.2170410819       -0.9113514280
 H         -2.4971527902       -1.2698161335       -1.2159910165
 H         -3.2309123737       -2.2626613014        0.0453307395
 H         -3.3723030500       -2.7259095636       -1.6458903025
 H         -5.7712478474       -2.9024797059       -1.5189910116
 H         -5.8297444744       -2.4415463404        0.1744050341
 H         -6.8023255510       -1.5759506068       -1.0261515006
  57
        -81.17633606
 C         -3.5772432703       -0.5290841824       -2.7110746333
 C         -2.7674648712       -1.1606450366       -1.5860159705
 C         -2.9667907370       -2.6686066113       -1.5330338855
 N         -3.1054819446       -0.5748607924       -0.2517405054
 C         -4.5394198793       -0.5901620481        0.1316589177
 C         -4.6481708780        0.5229632785        1.1629020890
 C         -3.7605061845        1.6044554761        0.5510694592
 C         -2.5816226735        0.7980494781       -0.0157900455
 C         -1.4612231683        0.6402005299        1.0326797806
 O         -1.3126686785       -0.4748236821        1.5433575959
 N         -0.7640080787        1.7067618524        1.4041156467
 C         -0.7050819266        2.9971417047        0.7512388191
 C          0.7605347873        3.3424650137        0.3871523862
 C          1.7137076894        2.1516770069        0.5335419252
 C          1.6303348393        1.5976315740        1.9678370317
 C          0.1877709643        1.6105757360        2.4951209739
 N          1.4368532291        1.0976722577       -0.4292214324
 C          0.4436746378        1.0477946616       -1.3567148669
 N          0.3234392410       -0.0983910191       -1.9587787725
 C          1.3161544461       -0.8860979291       -1.4279362484
 C          2.0435020043       -0.1313378943       -0.4778205969
 C          3.1588459895       -0.7217886202        0.1220100415
 C          4.2023669527       -0.3788700356        1.0205393632
 C          4.9946137492       -1.4837033015        1.1413640759
 N          4.5067707812       -2.4992830402        0.3742675066
 C          3.3924596973       -2.0687105653       -0.2726128027
 N          2.6810547677       -2.8032041902       -1.1326462280
 C          1.6566885145       -2.2128067164       -1.7091700139
 H         -2.1938456636        1.2006102346       -0.9490114468
 H          4.9076825548       -3.4168769232        0.2775177853
 H         -1.7034673029       -0.9497236995       -1.7491114492
 H         -2.5737176941       -1.1294867551        0.4637886214
 H         -5.1421015164       -0.3495862335       -0.7418431091
 H         -4.8213868930       -1.5664613331        0.5170810715
 H         -4.2483685104        0.1987801764        2.1241069143
 H         -5.6727339886        0.8534878381        1.3052490100
 H         -4.2888145012        2.1141802043       -0.2534124413
 H         -3.4435844700        2.3421421792        1.2827387520
 H         -1.3415841861        3.0055258361       -0.1288422363
 H         -1.0881940810        3.7504094743        1.4462804249
 H          0.8152334217        3.7411341848       -0.6248133060
 H          1.1328035165        4.1150921971        1.0589418093
 H          2.7395156602        2.4929432652        0.3475451873
 H          2.0179773092        0.5810794256        1.9836114174
 H          2.2587941151        2.2035814131        2.6182138282
 H          0.0242062780        2.4742515971        3.1433792476
 H         -0.0227301799        0.7014603798        3.0585929784
 H         -0.1525410781        1.8970109978       -1.6151525110
 H          4.3627975124        0.5647276377        1.5012561552
 H          5.8826149368       -1.6149531572        1.7272027469
 H          1.0960883571       -2.8011844361       -2.4197655281
 H         -2.6314197628       -3.1057780083       -2.4685116662
 H         -2.3803796939       -3.1115268307       -0.7312036667
 H         -4.0131177541       -2.9277030635       -1.3971400541
 H         -4.5880731481       -0.9247683566       -2.7509823160
 H         -3.6175047912        0.5525334240       -2.6255174575
 H         -3.0960839747       -0.7659494686       -3.6550708764
  57
        -81.17627878
 C         -5.6647496470        0.6774125321       -1.4048007288
 C         -5.8135384205        0.0953830605       -0.0050957935
 C         -6.3618886920        1.1307619147        0.9693194210
 N         -4.5058405874       -0.4744193101        0.4411602151
 C         -4.6046676480       -1.4182327175        1.5828039000
 C         -3.2148262818       -1.3913754523        2.1990486052
 C         -2.8621754992        0.0912234755        2.1040896638
 C         -3.4093762297        0.4917626654        0.7251838018
 C         -2.3892262393        0.2923864176       -0.4151364263
 O         -2.5825044552       -0.6470722343       -1.1966370588
 N         -1.3690621289        1.1274548085       -0.5397094034
 C         -0.4501709071        0.9027564030       -1.6528064586
 C          0.8496751860        1.6763711394       -1.4701688616
 C          1.3656520815        1.5397321871       -0.0322028080
 C          0.3228522487        2.0800271681        0.9619834485
 C         -1.0555820779        2.2559552414        0.3097090753
 N          1.7160291406        0.1574917324        0.2337183114
 C          0.9256773941       -0.8579120217        0.6824626402
 N          1.5208571859       -2.0093365540        0.7630014330
 C          2.8040901406       -1.7779730646        0.3265548583
 C          2.9328937150       -0.4122221430       -0.0203313797
 C          4.1577825835        0.0444808047       -0.5101450968
 C          4.7460961375        1.2436355351       -0.9881010597
 C          6.0356121388        0.9421896781       -1.3189316439
 N          6.2880904068       -0.3754171166       -1.0771697786
 C          5.1632571354       -0.9581566659       -0.5859079094
 N          5.0574894726       -2.2486072788       -0.2522320010
 C          3.8881676598       -2.6524429017        0.1970866170
 H         -3.7917760743        1.5105544934        0.7064087013
 H          7.1585606603       -0.8537753033       -1.2365028134
 H         -6.4991190870       -0.7559667172       -0.0457626587
 H         -4.1003833875       -0.9975249187       -0.3796490718
 H         -5.3409844988       -1.0448528921        2.2937774331
 H         -4.9080145781       -2.4029750179        1.2350975652
 H         -2.5194873773       -1.9920400490        1.6110735771
 H         -3.2078278198       -1.7585700836        3.2210356716
 H         -3.3766862483        0.6504879303        2.8847577555
 H         -1.7950277886        0.2644562949        2.2035917565
 H         -0.2543970393       -0.1726488235       -1.7140672305
 H         -0.9384530999        1.1945831743       -2.5880710995
 H          1.5905844283        1.2839774045       -2.1672040107
 H          0.7103205865        2.7331374867       -1.6928241919
 H          2.2983221480        2.1007724842        0.0682304417
 H          0.2637993511        1.4096120265        1.8190675385
 H          0.6458100269        3.0509468878        1.3341113876
 H         -1.0524589110        3.1545463160       -0.3125823292
 H         -1.8088522177        2.3786288751        1.0824772390
 H         -0.1023294811       -0.7256312998        0.9492350447
 H          4.2839537987        2.2050404230       -1.0853448032
 H          6.7979276426        1.5835735929       -1.7144652138
 H          3.8042149493       -3.6963030623        0.4606777656
 H         -6.3294330797        0.7853296050        1.9977192698
 H         -5.8331933615        2.0768438287        0.8975790851
 H         -7.4015942316        1.3226159142        0.7211988292
 H         -5.2420508661       -0.0520836408       -2.0918987980
 H         -6.6402596454        0.9688619604       -1.7818793286
 H         -5.0291983413        1.5591033335       -1.4051617707
  57
        -81.17622341
 C         -6.4871581215        1.0243478428        0.8149395991
 C         -5.6779854104        0.4189820837       -0.3248264105
 C         -6.5261019956       -0.5158835307       -1.1761240245
 N         -4.4741502151       -0.3180509231        0.1646903666
 C         -4.7127669234       -1.3962111978        1.1534692491
 C         -3.3551193439       -1.5716211707        1.8158636378
 C         -2.8977832499       -0.1232172050        1.9769300810
 C         -3.3697720786        0.5423995228        0.6736226661
 C         -2.3054128160        0.5319488582       -0.4440985472
 O         -2.4885624892       -0.2342768122       -1.3983093275
 N         -1.2617020954        1.3429107930       -0.3673200567
 C         -0.3021226404        1.3096525246       -1.4682463995
 C          1.0127305145        1.9774294311       -1.0849211448
 C          1.4583217267        1.5364514228        0.3149343308
 C          0.3895928531        1.9110221224        1.3567575406
 C         -0.9518779791        2.2679199057        0.7011778942
 N          1.7515529304        0.1157813853        0.3119830631
 C          0.9094566244       -0.9358053062        0.5173890138
 N          1.4635038288       -2.1033673023        0.3900628415
 C          2.7724964211       -1.8420343904        0.0599953048
 C          2.9603676110       -0.4409961321       -0.0024549227
 C          4.2206559629        0.0539007344       -0.3423088605
 C          4.8681531386        1.2992262302       -0.5482098031
 C          6.1618205099        1.0176085588       -0.8803079988
 N          6.3611777955       -0.3308197369       -0.8957264442
 C          5.1967802147       -0.9535321981       -0.5755797601
 N          5.0349561507       -2.2791802038       -0.5097409468
 C          3.8336443325       -2.7164911923       -0.1970308003
 H         -3.7289135441        1.5602564572        0.8262597038
 H          7.2228515573       -0.8026661261       -1.1120741744
 H         -5.2920636022        1.2190143975       -0.9646550386
 H         -4.0244347725       -0.7452372077       -0.6864363372
 H         -5.4442012402       -1.0548020574        1.8838476226
 H         -5.0730507263       -2.2955755880        0.6612428224
 H         -2.6740569582       -2.1211526938        1.1645690686
 H         -3.4220261174       -2.0957534682        2.7646161111
 H         -3.3956197464        0.3338810647        2.8313927176
 H         -1.8247078035       -0.0497802033        2.1252417276
 H         -0.1389070586        0.2614958206       -1.7387173721
 H         -0.7390743647        1.8032675711       -2.3421306803
 H          1.7711785179        1.7013559995       -1.8179039823
 H          0.9181645629        3.0621743422       -1.0963109117
 H          2.4031862504        2.0277894107        0.5610637400
 H          0.2703698693        1.0873351598        2.0601330302
 H          0.7262531812        2.7753657710        1.9268505539
 H         -0.8926310488        3.2707624079        0.2708146212
 H         -1.7351291451        2.2653374676        1.4535551845
 H         -0.1253388860       -0.8177774576        0.7637711479
 H          4.4414213566        2.2786689107       -0.4709611349
 H          6.9616194593        1.6934547493       -1.1093689731
 H          3.7051529013       -3.7875864291       -0.1483102086
 H         -5.9394508450       -0.9489684730       -1.9828577365
 H         -6.9554960947       -1.3150068472       -0.5790184648
 H         -7.3432594840        0.0437001240       -1.6213304190
 H         -5.8577818097        1.5280674815        1.5425517185
 H         -7.1721937484        1.7601439353        0.4040530788
 H         -7.0849657758        0.2725079821        1.3215165537
  57
        -81.17611351
 C         -6.2647598140        2.5891522651        0.1830868275
 C         -5.9141180766        1.2550016726       -0.4629909058
 C         -7.1538191922        0.5506126651       -0.9969554178
 N         -5.1961547693        0.3423631451        0.4770057750
 C         -5.8679817357        0.0516430498        1.7652523497
 C         -4.7320886645       -0.4417299973        2.6480533316
 C         -3.6054148058        0.5236422040        2.2831421381
 C         -3.7852554355        0.7181407132        0.7686049629
 C         -2.9242232023       -0.2602182224       -0.0523586725
 O         -3.5060134962       -1.1894268460       -0.6257890625
 N         -1.6126356138       -0.0847295685       -0.1077403792
 C         -0.8256621634       -1.0540697002       -0.8631797869
 C          0.6077004657       -1.0880605689       -0.3597252805
 C          1.2891839561        0.2679391568       -0.6108125343
 C          0.2872575355        1.4106277183       -0.3850251351
 C         -0.8671541293        0.9900609349        0.5230931336
 N          2.4657293158        0.3864993363        0.2246643583
 C          2.5664337594        0.8759761090        1.4933417343
 N          3.7561237890        0.7913714984        2.0076281621
 C          4.5238998717        0.1923250016        1.0366409734
 C          3.7126799182       -0.0758336329       -0.0910362645
 C          4.2863020457       -0.6992821383       -1.2004060546
 C          3.9105601187       -1.1682787396       -2.4854295041
 C          5.0338458573       -1.6959515497       -3.0537589473
 N          6.0898111944       -1.5858172252       -2.1988398025
 C          5.6714831927       -0.9842033566       -1.0545610443
 N          6.4515750158       -0.7285542738        0.0010516095
 C          5.8808206755       -0.1483207870        1.0355112047
 H         -3.5987165604        1.7434886630        0.4506369647
 H          7.0307765561       -1.8966625940       -2.3716549290
 H         -5.2228282547        1.4221285176       -1.2951436673
 H         -5.0629961725       -0.5656780780       -0.0387266729
 H         -6.2820037658        0.9743949734        2.1678725611
 H         -6.6592875426       -0.6806445101        1.6285976973
 H         -4.4591220328       -1.4647846523        2.3880621438
 H         -4.9845525171       -0.4077538687        3.7036803321
 H         -3.7373666864        1.4713398832        2.8029369896
 H         -2.6280997977        0.1235352281        2.5359981794
 H         -1.3000918266       -2.0320569915       -0.7537503707
 H         -0.8466973745       -0.7922644041       -1.9260646453
 H          0.6235839920       -1.3129434366        0.7079576414
 H          1.1545388103       -1.8808531245       -0.8688106073
 H          1.6527322192        0.3089616026       -1.6415510208
 H          0.7960458298        2.2729143838        0.0437341482
 H         -0.1207332588        1.7162389292       -1.3482439233
 H         -1.5154751370        1.8469737110        0.6938860563
 H         -0.4814157639        0.6527795374        1.4898923201
 H          1.7408231511        1.3069644910        2.0220961425
 H          2.9402974799       -1.1295219234       -2.9375038178
 H          5.1538686692       -2.1474725048       -4.0184730745
 H          6.5123085467        0.0533842799        1.8879962757
 H         -7.6186598536        1.1678585064       -1.7598828634
 H         -6.8958096449       -0.4033571906       -1.4506903661
 H         -7.8849673006        0.3857975429       -0.2110085892
 H         -5.4326966236        3.0053754168        0.7433466792
 H         -6.5252924979        3.2976407458       -0.5977821784
 H         -7.1253449760        2.4991578080        0.8393010565
  57
        -81.17609176
 C         -5.6047384861        0.9760683472       -1.7395770261
 C         -6.0958157365        1.1523820522       -0.3085450341
 C         -6.1181069945        2.6227340583        0.0911784484
 N         -5.2619375261        0.3206805396        0.6115003427
 C         -5.8683011007        0.0807362331        1.9443869489
 C         -4.6783567182       -0.2586662534        2.8280814785
 C         -3.6258765062        0.7305586072        2.3318236301
 C         -3.8489115871        0.7426791785        0.8117041322
 C         -2.9975113096       -0.3200190790        0.0920452563
 O         -3.5817772607       -1.3168870744       -0.3498625364
 N         -1.6898592681       -0.1409220213       -0.0204388796
 C         -0.9118238579       -1.1880393649       -0.6744658002
 C          0.5348397815       -1.1484564486       -0.2109227399
 C          1.1936468386        0.1727864488       -0.6429305325
 C          0.1839410569        1.3255455721       -0.5323269640
 C         -0.9409001179        1.0098196999        0.4522394929
 N          2.3886670237        0.4031417639        0.1414566384
 C          2.5120618724        1.0375051402        1.3421598516
 N          3.7147913054        1.0280166808        1.8323935513
 C          4.4683704439        0.3303055185        0.9177855300
 C          3.6347344723       -0.0768296543       -0.1503815278
 C          4.1916416031       -0.8165119506       -1.1949717812
 C          3.7928862129       -1.4343997189       -2.4080901955
 C          4.9106967336       -2.0082916643       -2.9412727784
 N          5.9848684749       -1.7871012698       -2.1317373962
 C          5.5843715303       -1.0643061472       -1.0530363772
 N          6.3852076703       -0.6790360743       -0.0536876129
 C          5.8300109597        0.0091521797        0.9213737074
 H         -3.6840445872        1.7246407998        0.3732741589
 H          6.9265138245       -2.1018463206       -2.2932253036
 H         -7.1075910920        0.7447552902       -0.2273297823
 H         -5.1231965893       -0.6130521079        0.1423723400
 H         -6.3478625863        0.9958000466        2.2902873407
 H         -6.6091658818       -0.7133159662        1.8859482110
 H         -4.3512453020       -1.2842061812        2.6550104245
 H         -4.9003564104       -0.1383058278        3.8842183582
 H         -3.8125558725        1.7203784068        2.7457133034
 H         -2.6192972407        0.4261232710        2.6016976841
 H         -1.3711908997       -2.1496578422       -0.4339786671
 H         -0.9643362254       -1.0576557611       -1.7602448069
 H          0.5817884328       -1.2420714451        0.8753023288
 H          1.0772636911       -1.9925308663       -0.6352897486
 H          1.5314890289        0.0911132639       -1.6799107478
 H          0.6932046632        2.2386444070       -0.2270178330
 H         -0.2522984961        1.5059117355       -1.5146042902
 H         -1.5947107654        1.8755961619        0.5351692363
 H         -0.5245945316        0.7978688349        1.4417068370
 H          1.6928531445        1.5169265137        1.8381708675
 H          2.8115697598       -1.4609216739       -2.8365517780
 H          5.0150363049       -2.5651869801       -3.8511818095
 H          6.4783655740        0.3161617406        1.7285901044
 H         -6.3143717651        2.7586740562        1.1499533403
 H         -5.1907158723        3.1277447572       -0.1633157072
 H         -6.9151445528        3.1179510516       -0.4555438497
 H         -6.2883104806        1.4726701996       -2.4214061334
 H         -4.6186853493        1.4111817269       -1.8792406455
 H         -5.5592779938       -0.0752896700       -2.0140343396
  57
        -81.17607379
 C         -5.6479618640        1.1458316382       -1.6373203047
 C         -6.1060237651        1.1741853314       -0.1849062438
 C         -6.1346410026        2.5977433592        0.3582124057
 N         -5.2408998926        0.2673062057        0.6291769444
 C         -5.8111827980       -0.1094827991        1.9462048531
 C         -4.5961598612       -0.5206574951        2.7626794406
 C         -3.5654757804        0.5247113577        2.3413765201
 C         -3.8278398019        0.6861035396        0.8360004423
 C         -2.9832281110       -0.2879003864       -0.0064566951
 O         -3.5667137044       -1.2464332488       -0.5271418076
 N         -1.6819303087       -0.0763101214       -0.1362519901
 C         -0.9023858324       -1.0449593592       -0.8992864749
 C          0.5395946181       -1.0620731952       -0.4191470910
 C          1.2093576438        0.2940142564       -0.7029892196
 C          0.1928038670        1.4298373819       -0.5168991085
 C         -0.9383316929        1.0351071186        0.4310615073
 N          2.3770702246        0.4465727175        0.1400552738
 C          2.4739519099        1.0104809279        1.3777341522
 N          3.6546996379        0.9294178480        1.9129724173
 C          4.4197031813        0.2535957892        0.9915916882
 C          3.6166640956       -0.0630028523       -0.1292730915
 C          4.1891321084       -0.7658470730       -1.1907015130
 C          3.8191277291       -1.3001481606       -2.4516403937
 C          4.9356060231       -1.8902196471       -2.9698695920
 N          5.9817880695       -1.7576494448       -2.1061287397
 C          5.5638624269       -1.0776956450       -1.0064428551
 N          6.3358747903       -0.7789165841        0.0437480663
 C          5.7668810833       -0.1214856275        1.0319669733
 H         -3.6848529211        1.7093517768        0.4953045069
 H          6.9159852534       -2.1040310535       -2.2447827804
 H         -7.1109836355        0.7471025993       -0.1208866598
 H         -5.1042647820       -0.6144241581        0.0679961568
 H         -6.2898653725        0.7615607072        2.3923938622
 H         -6.5462479606       -0.9022680719        1.8279357832
 H         -4.2642165896       -1.5202879571        2.4812342101
 H         -4.7922503146       -0.5077352882        3.8306546640
 H         -3.7491860028        1.4662434667        2.8567341279
 H         -2.5498636609        0.2055982409        2.5543169055
 H         -1.3668349857       -2.0253980023       -0.7720232013
 H         -0.9439141007       -0.7926641775       -1.9637205183
 H          0.5721201395       -1.2673633870        0.6522581450
 H          1.0833413884       -1.8613048844       -0.9211623246
 H          1.5812830721        0.3114106842       -1.7317307653
 H          0.6937994577        2.3208131115       -0.1409375130
 H         -0.2354240488        1.6800072848       -1.4872870240
 H         -1.5951648527        1.8905699780        0.5767516966
 H         -0.5275905273        0.7472321454        1.4036148200
 H          1.6538614697        1.4940411333        1.8680244919
 H          2.8573018002       -1.2604479314       -2.9212995503
 H          5.0571898233       -2.4009586386       -3.9043752396
 H          6.3917005924        0.1157539378        1.8802448529
 H         -6.3042232272        2.6262634418        1.4298625759
 H         -5.2202409789        3.1382793029        0.1312356458
 H         -6.9516256189        3.1330597269       -0.1165367611
 H         -5.5980026704        0.1272236183       -2.0151009853
 H         -6.3530822022        1.6981863816       -2.2509241956
 H         -4.6702484150        1.6052942774       -1.7561134262
  57
        -81.17605241
 C         -5.6612513245        1.1782063465       -1.6152051299
 C         -6.1087611050        1.1794709321       -0.1592637527
 C         -6.1348648688        2.5927818218        0.4101644957
 N         -5.2368932039        0.2588591980        0.6319066299
 C         -5.7988169466       -0.1441561693        1.9448081683
 C         -4.5782983331       -0.5695307072        2.7455722424
 C         -3.5520216782        0.4859423305        2.3390318833
 C         -3.8233922941        0.6763245654        0.8386049243
 C         -2.9814072071       -0.2801504563       -0.0262037405
 O         -3.5654687976       -1.2308901956       -0.5602572401
 N         -1.6812993692       -0.0629625240       -0.1589855243
 C         -0.9015975482       -1.0181716949       -0.9384865260
 C          0.5389453250       -1.0464104876       -0.4542463949
 C          1.2122205972        0.3130268043       -0.7131439132
 C          0.1952473540        1.4466584364       -0.5171541264
 C         -0.9384109513        1.0413211430        0.4232358303
 N          2.3742009828        0.4518204693        0.1402651339
 C          2.4652187942        1.0041645006        1.3836027730
 N          3.6416082192        0.9117787097        1.9265852465
 C          4.4095510149        0.2399540003        1.0047812631
 C          3.6130045290       -0.0620111967       -0.1247059997
 C          4.1895149976       -0.7580323301       -1.1884381997
 C          3.8261232032       -1.2778610414       -2.4572994985
 C          4.9429632070       -1.8698513254       -2.9725281784
 N          5.9831986066       -1.7520002990       -2.0994663838
 C          5.5608928946       -1.0799553269       -0.9965700023
 N          6.3266435158       -0.7954742885        0.0621159367
 C          5.7541941926       -0.1433946965        1.0518641450
 H         -3.6840992904        1.7062645792        0.5171244030
 H          6.9162034578       -2.1032251840       -2.2339527723
 H         -7.1127814158        0.7500879042       -0.0958371912
 H         -5.1019468198       -0.6118020118        0.0534367597
 H         -6.2758270355        0.7174759858        2.4106778638
 H         -6.5336095644       -0.9354795158        1.8155935263
 H         -4.2464581891       -1.5627158191        2.4419119186
 H         -4.7677337942       -0.5784084980        3.8148017832
 H         -3.7344490161        1.4167496772        2.8738638065
 H         -2.5346823512        0.1645500347        2.5398981426
 H         -1.3679529135       -2.0000009666       -0.8307610868
 H         -0.9395463916       -0.7459665394       -1.9980983453
 H          0.5673732134       -1.2695231593        0.6137447631
 H          1.0827037867       -1.8384045131       -0.9675294916
 H          1.5912414022        0.3455571836       -1.7389674021
 H          0.6952278002        2.3334096985       -0.1300472699
 H         -0.2302573590        1.7076655022       -1.4858894662
 H         -1.5952822160        1.8953995922        0.5771611507
 H         -0.5300642555        0.7419775250        1.3933311300
 H          1.6444618697        1.4878967879        1.8725281003
 H          2.8682759636       -1.2275106374       -2.9340049494
 H          5.0687087349       -2.3723777008       -3.9109218868
 H          6.3739265184        0.0822047637        1.9070199545
 H         -6.9573177553        3.1351234328       -0.0468555786
 H         -6.2941777731        2.6012299979        1.4837436852
 H         -5.2236587218        3.1391890891        0.1844229268
 H         -5.6141877243        0.1667723401       -2.0121833926
 H         -6.3708113720        1.7418112842       -2.2132443061
 H         -4.6843983731        1.6398927825       -1.7324776226
  57
        -81.17598413
 C         -5.3663923282       -0.9610688984        0.6658917558
 C         -4.8161507629        0.0012596215       -0.3786228246
 C         -5.6386147644       -0.0356996881       -1.6591594267
 N         -3.3840815043       -0.2753491808       -0.7056107730
 C         -3.0569885275       -1.6508364526       -1.1473415342
 C         -1.5576377552       -1.7472059817       -0.9133345180
 C         -1.3986726670       -1.0399918925        0.4314453291
 C         -2.4103839977        0.1150887061        0.3510692308
 C         -1.7859119543        1.4367447692       -0.1391991037
 O         -2.0862627235        1.8191561792       -1.2754147860
 N         -0.9886328562        2.1161673398        0.6720540106
 C         -0.3896398080        3.3638939839        0.2317254872
 C          1.1383583042        3.3485527719        0.4314160124
 C          1.6774002835        1.9771122347        0.8396958012
 C          0.9182993944        1.4357153686        2.0657145243
 C         -0.5868111691        1.7602501745        2.0143718389
 N          1.6467946793        1.0104859727       -0.2446662544
 C          1.0299240803        1.0616328419       -1.4598519829
 N          1.1688912397       -0.0136558659       -2.1754689238
 C          1.9432105005       -0.8578303478       -1.4144019536
 C          2.2610415244       -0.2144585690       -0.1966210663
 C          3.0704239474       -0.8838132445        0.7239726505
 C          3.6583510060       -0.6663502161        1.9966316166
 C          4.3672975721       -1.7935117095        2.2973823575
 N          4.2523358640       -2.7053679620        1.2908405323
 C          3.4724864679       -2.1838665676        0.3083801455
 N          3.1611870800       -2.8090437675       -0.8311429845
 C          2.4060203580       -2.1503862028       -1.6838884739
 H         -2.9317902294        0.2818734562        1.2939041476
 H          4.6845192746       -3.6133040812        1.2588570829
 H         -4.8340319815        1.0216055601        0.0176248146
 H         -3.1285991679        0.3899038095       -1.4788712942
 H         -3.5820878450       -2.3630328256       -0.5131231766
 H         -3.3400673902       -1.7981928377       -2.1860066220
 H         -1.0036441894       -1.2188319409       -1.6908632468
 H         -1.2059814415       -2.7745919303       -0.8850054554
 H         -1.6606196754       -1.7141624210        1.2459645133
 H         -0.3801550993       -0.6956260481        0.5819890579
 H         -0.6601599928        3.5160763898       -0.8136033249
 H         -0.8322626547        4.1790033802        0.8116885932
 H          1.6399365127        3.6811945161       -0.4769775712
 H          1.4092979962        4.0423085917        1.2266143377
 H          2.7347828124        2.0887472946        1.1084963656
 H          1.0774749362        0.3595418365        2.1275489464
 H          1.3464206427        1.8801177123        2.9624288757
 H         -0.7948553933        2.6272152839        2.6473657159
 H         -1.1635500267        0.9184008029        2.3860475822
 H          0.4811690903        1.9101818821       -1.8106989148
 H          3.5821606427        0.2094332215        2.6079388789
 H          4.9516497447       -2.0085892677        3.1698042794
 H          2.1626195595       -2.6542999186       -2.6069386254
 H         -5.6698671896       -1.0361700603       -2.0804198808
 H         -6.6584337330        0.2668685020       -1.4412405463
 H         -5.2371641694        0.6512328058       -2.4003640052
 H         -4.6828180230       -1.0979379250        1.4985686224
 H         -6.2927128479       -0.5545559415        1.0610383286
 H         -5.5957697601       -1.9295955294        0.2315965309
  57
        -81.17597065
 C         -5.7582318054       -2.1808459873        0.9284684251
 C         -4.5652524923       -1.6208826883        0.1634612577
 C         -3.2685449292       -1.9931221667        0.8730939413
 N         -4.6810710873       -0.1379656654        0.0636552859
 C         -5.9515446886        0.3545676155       -0.5194725521
 C         -5.6144490706        1.7726353482       -0.9506787337
 C         -4.2240420503        1.6011265657       -1.5587688561
 C         -3.5675635942        0.5328687282       -0.6638314456
 C         -2.6848065260        1.1763936062        0.4187761382
 O         -3.1489488930        1.2533446497        1.5606254413
 N         -1.4905309332        1.6400307745        0.0728776835
 C         -0.6626407514        2.2998037344        1.0661023512
 C          0.6177710794        1.4974071180        1.3134821279
 C          1.1775811583        0.9390434707       -0.0103785983
 C          0.6087328101        1.7273260872       -1.1946597840
 C         -0.9046688979        1.5180609877       -1.2539235620
 N          2.6219423610        0.9527768159       -0.0167680315
 C          3.4322044911        2.0500548986        0.0021799506
 N          4.7015383024        1.7782315788       -0.0088308026
 C          4.7718946381        0.4045581911       -0.0347668955
 C          3.4601300504       -0.1264091729       -0.0374121518
 C          3.2968515019       -1.5134590125       -0.0579321384
 C          2.2555034730       -2.4772085399       -0.0614634034
 C          2.8539382132       -3.7036710022       -0.0861495069
 N          4.2092119568       -3.5641843304       -0.0992697400
 C          4.5183394017       -2.2413105788       -0.0806010782
 N          5.7629327196       -1.7519208654       -0.0821012446
 C          5.8855145171       -0.4418081631       -0.0579008102
 H         -3.0152254281       -0.1975077461       -1.2523527566
 H          4.8847946291       -4.3092980897       -0.1152287394
 H         -4.5644673373       -2.0144038894       -0.8579934807
 H         -4.5760580567        0.2567768947        1.0310700444
 H         -6.1986116008       -0.2618510473       -1.3849277663
 H         -6.7565415260        0.3107003965        0.2088351685
 H         -5.5753796300        2.4351424022       -0.0857631663
 H         -6.3331285621        2.1710249631       -1.6604907620
 H         -4.2990340449        1.2389748040       -2.5824982862
 H         -3.6667076028        2.5338835272       -1.5610608596
 H         -0.4268279201        3.3053010422        0.7116931349
 H         -1.2399532485        2.3845000575        1.9872208375
 H          1.3548231419        2.1492920234        1.7823987137
 H          0.4190098534        0.6767749852        2.0026081194
 H          0.8897790557       -0.1094392564       -0.1216959121
 H          0.8575641548        2.7824618955       -1.0922526329
 H          1.0526492638        1.3719745377       -2.1244969640
 H         -1.1003584890        0.5190947151       -1.6478347540
 H         -1.3461090670        2.2516880898       -1.9340771658
 H          3.0511901748        3.0515586803        0.0234847110
 H          1.1996967379       -2.3011031688       -0.0399610867
 H          2.4028464671       -4.6759236835       -0.0952112796
 H          6.8905125186       -0.0463085842       -0.0576845904
 H         -3.2233893053       -3.0704086584        0.9999612684
 H         -2.3868429982       -1.6900741963        0.3162687469
 H         -3.2284123623       -1.5354471475        1.8590835241
 H         -6.6921264788       -2.0326972279        0.3964372768
 H         -5.6254057063       -3.2499118121        1.0647543342
 H         -5.8305424332       -1.7265594823        1.9134707247
  57
        -81.17592488
 C         -6.4445438920        2.3955949833       -0.3372317418
 C         -5.1397684269        1.9941563079        0.3400495462
 C         -3.9682235620        2.7177141311       -0.3140032362
 N         -4.9485634467        0.5196334227        0.2323969254
 C         -6.0780662799       -0.2966593677        0.7378491910
 C         -5.4485401280       -1.6583418097        0.9825365083
 C         -4.1109844683       -1.2822874751        1.6159159138
 C         -3.7033395322       -0.0034278835        0.8614154767
 C         -2.7450336835       -0.3164825733       -0.3009853577
 O         -3.2146435663       -0.3082737360       -1.4432974464
 N         -1.4801589564       -0.6078804662       -0.0260116740
 C         -0.5739607517       -0.9553071368       -1.1053143043
 C          0.5145309449        0.1124586216       -1.2561941412
 C          0.9281439471        0.6530852723        0.1240506067
 C          0.6290502007       -0.3830927732        1.2122611312
 C         -0.8849835003       -0.5954761198        1.3012956705
 N          2.3120417711        1.0659413611        0.1492596319
 C          2.7325131674        2.3269847539        0.4546017188
 N          4.0197727772        2.4811780217        0.4607759344
 C          4.5235234198        1.2429249253        0.1406105315
 C          3.4531731742        0.3353602848       -0.0609454378
 C          3.7658160092       -0.9851208506       -0.4031147277
 C          3.1114806546       -2.2077333639       -0.7078535211
 C          4.0852968492       -3.1297733149       -0.9597672227
 N          5.3145048035       -2.5584899163       -0.8302543486
 C          5.1610465590       -1.2512042247       -0.4947219021
 N          6.1748405172       -0.4024024498       -0.2994825750
 C          5.8547867810        0.8342585563        0.0131088821
 H         -3.2860854623        0.7445418058        1.5335491403
 H          6.2022199398       -3.0129660775       -0.9621291435
 H         -5.1877572623        2.2374953014        1.4062395948
 H         -4.7896433754        0.2923469243       -0.7809888917
 H         -6.4282630263        0.1378826242        1.6752021169
 H         -6.8901144013       -0.3253676764        0.0166679997
 H         -5.2923588272       -2.1817495784        0.0390739751
 H         -6.0553873297       -2.2837795985        1.6303275302
 H         -4.2393599277       -1.0685372258        2.6755300182
 H         -3.3752082836       -2.0743035731        1.5094131688
 H         -0.1367036287       -1.9303460033       -0.8811922072
 H         -1.1531991658       -1.0397900317       -2.0250010563
 H          1.3768227181       -0.3243910719       -1.7579485218
 H          0.1526928336        0.9330010746       -1.8756309046
 H          0.3523184937        1.5587134683        0.3468086793
 H          1.1524065882       -1.3107643889        0.9902660153
 H          0.9948062353       -0.0246118039        2.1745909964
 H         -1.3186820919        0.2158072802        1.8863772578
 H         -1.0874306504       -1.5392751869        1.8156855163
 H          2.0435484502        3.1204747509        0.6685823481
 H          2.0597588654       -2.3976350018       -0.7533365669
 H          3.9837440608       -4.1632652991       -1.2250456423
 H          6.6696106249        1.5254699688        0.1689541193
 H         -3.0266867854        2.5327105742        0.1944778290
 H         -3.8648747154        2.4139612096       -1.3533650877
 H         -4.1480364464        3.7882195592       -0.2926357931
 H         -6.4536753172        2.0730565703       -1.3753249689
 H         -7.3123757936        1.9891903242        0.1716029854
 H         -6.5351783728        3.4776245801       -0.3249326266
  57
        -81.17587220
 C         -5.2604022345        1.0815425616       -0.5324986863
 C         -4.8560446118       -0.3865577572       -0.5048026177
 C         -5.2405612605       -1.0403090626        0.8169821971
 N         -3.3956560440       -0.5105966096       -0.8024494965
 C         -2.9675217656       -1.8712520597       -1.2098247693
 C         -1.4763583703       -1.8875670987       -0.9149716849
 C         -1.4050722531       -1.1260601326        0.4068878966
 C         -2.4512411528       -0.0133876983        0.2346544368
 C         -1.8546612061        1.2857970278       -0.3415372789
 O         -2.1346918045        1.5704858226       -1.5108505636
 N         -1.1023420911        2.0518559484        0.4352651992
 C         -0.5363844478        3.2851783746       -0.0824190931
 C          0.9836598716        3.3463716658        0.1629766220
 C          1.5624457186        2.0285794487        0.6793954722
 C          0.7889034954        1.5420691889        1.9193972384
 C         -0.7236947233        1.8117206035        1.8096122965
 N          1.5999782923        0.9903875873       -0.3364823391
 C          1.0227312944        0.9387614556       -1.5708243467
 N          1.2267049583       -0.1735102688       -2.2103703922
 C          2.0063405533       -0.9354778430       -1.3720074291
 C          2.2586149611       -0.2031209146       -0.1896152527
 C          3.0627820904       -0.7788143119        0.7966213773
 C          3.6006805102       -0.4566754339        2.0692762676
 C          4.3430189425       -1.5323178209        2.4636277228
 N          4.2958879084       -2.5105209627        1.5155982604
 C          3.5281613707       -2.0852639305        0.4787702779
 N          3.2780789630       -2.7946858623       -0.6260056049
 C          2.5265314431       -2.2229975713       -1.5423413357
 H         -2.9879605585        0.1990680637        1.1574741577
 H          4.7641664749       -3.3999945739        1.5552381461
 H         -5.3599112174       -0.9094011876       -1.3227883850
 H         -3.1875084274        0.1502733526       -1.5954135737
 H         -3.4835859869       -2.6080963378       -0.5949568707
 H         -3.2035265471       -2.0458365568       -2.2568325816
 H         -0.9177238861       -1.3618009303       -1.6908115769
 H         -1.0788460734       -2.8953552219       -0.8351570570
 H         -1.6834805927       -1.7775738240        1.2343311895
 H         -0.4074344009       -0.7394435874        0.5911644006
 H         -0.7789314861        3.3468673327       -1.1437160175
 H         -1.0276269915        4.1240330212        0.4195273448
 H          1.5008317616        3.6381144417       -0.7507027519
 H          1.2016963234        4.1021778722        0.9168374264
 H          2.6066146076        2.2004111896        0.9675521143
 H          0.9810123699        0.4781203258        2.0553891303
 H          1.1779440831        2.0575021934        2.7957236246
 H         -0.9741900226        2.7167742209        2.3698557119
 H         -1.2819321754        0.9812564840        2.2318352875
 H          0.4533166807        1.7398982241       -1.9927902639
 H          3.4708323386        0.4525089634        2.6197035865
 H          4.9068521804       -1.6675631727        3.3651299860
 H          2.3327124515       -2.7942727180       -2.4375461839
 H         -4.8093929672       -2.0302557705        0.9269056644
 H         -4.9519376076       -0.4325020738        1.6697337214
 H         -6.3207232561       -1.1477544157        0.8486254537
 H         -6.3395588176        1.1617509277       -0.4449203281
 H         -4.8155367356        1.6332655707        0.2915816207
 H         -4.9612085947        1.5553049106       -1.4645189993
  57
        -81.17585888
 C         -2.6526138152       -2.1834244687        1.0019531432
 C         -3.9173346296       -1.9036283881        0.2011063973
 C         -3.7941039243       -2.4289391346       -1.2240735933
 N         -4.2242996942       -0.4416302115        0.2508294192
 C         -5.6104935672       -0.0867356727       -0.1399777524
 C         -5.5127642632        1.3858976607       -0.5044652691
 C         -4.1861422143        1.4363730051       -1.2602889959
 C         -3.2908054128        0.4686398943       -0.4666489104
 C         -2.4996906893        1.2003790080        0.6350213329
 O         -2.8840703473        1.0618094036        1.8014756424
 N         -1.4687220136        1.9574514929        0.2899348053
 C         -0.7104532928        2.6380378871        1.3327398365
 C          0.7820750616        2.6584799950        0.9912947083
 C          1.1325066021        1.3492974935        0.2856846693
 C          0.4399221701        1.3131640501       -1.0907298336
 C         -0.8923358155        2.0791742722       -1.0326061290
 N          2.5567047550        1.1570686653        0.1372955722
 C          3.5416185239        2.0930612251        0.0240974577
 N          4.7284974467        1.5997434148       -0.1640343155
 C          4.5499291150        0.2356909034       -0.1940885013
 C          3.1781337394       -0.0517519425       -0.0096751714
 C          2.7608854792       -1.3832214169       -0.0132212683
 C          1.5667866338       -2.1367273992        0.1165621861
 C          1.9161073474       -3.4510526555        0.0000740851
 N          3.2598003290       -3.5626605061       -0.1978908042
 C          3.8107776007       -2.3206663440       -0.2106610248
 N          5.1122041850       -2.0638144233       -0.3819494741
 C          5.4755526264       -0.7988231472       -0.3723751865
 H         -2.6226388745       -0.1041134702       -1.1054699809
 H          3.7756878548       -4.4182848901       -0.3149874786
 H         -4.7642673082       -2.3929563711        0.6905718054
 H         -4.0802247515       -0.1296154473        1.2462781278
 H         -5.9001120038       -0.6747806541       -1.0102043100
 H         -6.2986453487       -0.2899923331        0.6772952355
 H         -5.4644207460        2.0014701700        0.3940784893
 H         -6.3505237078        1.7192651937       -1.1095654468
 H         -4.3190243327        1.0739983235       -2.2788303945
 H         -3.7786450015        2.4429120732       -1.2974035284
 H         -1.0863287838        3.6583357168        1.4508799496
 H         -0.8877894806        2.1022953712        2.2682969466
 H          1.0172351566        3.5022400070        0.3432352833
 H          1.3599778979        2.7662282618        1.9084692704
 H          0.7776175623        0.5179031215        0.9058722706
 H          1.0897071104        1.7790903787       -1.8320602818
 H          0.2874129015        0.2769961391       -1.3918730335
 H         -1.5721941342        1.7153739196       -1.7969558983
 H         -0.7190116484        3.1416632306       -1.2154563156
 H          3.3548202139        3.1453511633        0.0943765790
 H          0.5797952216       -1.7609175075        0.2897019536
 H          1.2959127646       -4.3238249685        0.0448086067
 H          6.5270655247       -0.5942718204       -0.5100054790
 H         -2.8562648880       -2.1356709648       -1.6870721455
 H         -3.8132208841       -3.5143927164       -1.1950985142
 H         -4.6155752151       -2.1046330257       -1.8548053459
 H         -2.7256208307       -1.7835410067        2.0106433946
 H         -2.4965551828       -3.2552483037        1.0748007870
 H         -1.7790360351       -1.7510967565        0.5210051666
  57
        -81.17580344
 C         -2.4323515697       -2.2211638884       -0.0911017724
 C         -3.8231806430       -1.7883807703       -0.5395391297
 C         -3.9175871362       -1.7342595739       -2.0588587304
 N         -4.1716518324       -0.4878617489        0.1095243394
 C         -5.5978835718       -0.0939882599        0.0063380101
 C         -5.5715550807        1.4029748547        0.2709432712
 C         -4.3308947009        1.8372686595       -0.5076334111
 C         -3.3378498255        0.6893292382       -0.2552201330
 C         -2.4539495984        0.9657934654        0.9765754396
 O         -2.7238448597        0.3606954382        2.0198020143
 N         -1.4725007806        1.8497165635        0.8734260944
 C         -0.6032030516        2.0884654654        2.0182729201
 C          0.8584142872        2.1916266496        1.5694328676
 C          1.0698134038        1.2501452817        0.3804132226
 C          0.2683996034        1.7653746350       -0.8302602486
 C         -1.0085714500        2.4740998489       -0.3478982956
 N          2.4659314813        1.0971714819        0.0468933560
 C          3.3818363559        2.0871785339       -0.1581868532
 N          4.5647998560        1.6620118734       -0.4825100924
 C          4.4573502552        0.2906172795       -0.5079717869
 C          3.1317483528       -0.0756115142       -0.1758966827
 C          2.7951839900       -1.4306709849       -0.1457646882
 C          1.6719509201       -2.2581911220        0.1127287287
 C          2.0865123816       -3.5479048717       -0.0544367105
 N          3.4026543032       -3.5759346104       -0.4054406742
 C          3.8712443489       -2.3023918465       -0.4688067657
 N          5.1277299703       -1.9697584676       -0.7832873488
 C          5.4156524638       -0.6857862088       -0.8009924637
 H         -2.7270019924        0.4637226823       -1.1259014342
 H          3.9552831436       -4.3970871745       -0.5848778056
 H         -4.5581213132       -2.5059634194       -0.1633109128
 H         -3.9402704771       -0.5844115666        1.1321697961
 H         -5.9540397111       -0.2914814452       -1.0037549587
 H         -6.1991516281       -0.6548025805        0.7181268196
 H         -5.4451724166        1.6036082858        1.3351167799
 H         -6.4741011559        1.8999607031       -0.0717737889
 H         -4.5597592719        1.9080181856       -1.5701688567
 H         -3.9510052277        2.7964040233       -0.1663471122
 H         -0.9112037745        3.0073022577        2.5247274701
 H         -0.7392718954        1.2556507172        2.7117328033
 H          1.1053227628        3.2127224544        1.2809516218
 H          1.5125216068        1.9116064566        2.3944534102
 H          0.7195408589        0.2543073439        0.6668191694
 H          0.8787300638        2.4679154828       -1.3975773667
 H          0.0312094168        0.9288335857       -1.4875140387
 H         -1.7726727871        2.4574429298       -1.1193170330
 H         -0.7909398732        3.5179658286       -0.1146628086
 H          3.1443177221        3.1270017996       -0.0553653060
 H          0.6863283353       -1.9541743010        0.3996890719
 H          1.5291091801       -4.4567508497        0.0540049226
 H          6.4307497172       -0.4178312221       -1.0541363922
 H         -3.7586896646       -2.7359881115       -2.4472725785
 H         -4.8935989871       -1.4051220338       -2.4002910863
 H         -3.1570386301       -1.0933560613       -2.4948150271
 H         -1.6612302390       -1.5958033630       -0.5339074802
 H         -2.3374759293       -2.1824061542        0.9919054950
 H         -2.2497334896       -3.2436416854       -0.4072214747
  57
        -81.17579927
 C         -3.2516482503       -2.7197075894       -0.7455899618
 C         -3.2009185676       -1.8482943512        0.5022128409
 C         -3.8824289401       -2.5250985982        1.6834791988
 N         -3.8165163952       -0.5045058052        0.2813814479
 C         -5.2113245940       -0.4821049112       -0.2159814895
 C         -5.3631974575        0.9355617958       -0.7444161354
 C         -4.0317234325        1.1519264580       -1.4633343302
 C         -3.0161118973        0.4240387299       -0.5630626516
 C         -2.3216577877        1.3835038231        0.4226357918
 O         -2.6849972181        1.3512286967        1.6027639745
 N         -1.3925225049        2.2073174907       -0.0417275502
 C         -0.6521867661        3.0528308808        0.8848611821
 C          0.8547641184        2.9582891456        0.6030647253
 C          1.1479981747        1.5599499468        0.0608113919
 C          0.5160395393        1.4201509671       -1.3371350847
 C         -0.8212107542        2.1804591171       -1.3726389167
 N          2.5562753206        1.2482109038        0.0071689002
 C          3.6254997680        2.0799559776       -0.1435693029
 N          4.7695942285        1.4689707757       -0.2196950699
 C          4.4692057171        0.1289253498       -0.1265404449
 C          3.0704964446       -0.0181772730        0.0113861630
 C          2.5304020837       -1.3004099698        0.1168723836
 C          1.2661890809       -1.9281982381        0.2553198400
 C          1.4974340164       -3.2730461740        0.2932190555
 N          2.8325698298       -3.5222200377        0.1831605078
 C          3.4963590559       -2.3416461777        0.0738007783
 N          4.8221719848       -2.2185271387       -0.0538969618
 C          5.3011403957       -0.9966290665       -0.1527681343
 H         -2.2745137413       -0.1347942842       -1.1322023489
 H          3.2717748247       -4.4272857760        0.1839108485
 H         -2.1572208529       -1.6535908867        0.7699073393
 H         -3.7925812345       -0.0148116779        1.2106602162
 H         -5.3116836538       -1.1998071778       -1.0284237592
 H         -5.9083462423       -0.7244813471        0.5817350014
 H         -5.4733936134        1.6427925793        0.0780020386
 H         -6.2156915146        1.0408476922       -1.4087226700
 H         -4.0584736366        0.6910319931       -2.4497543392
 H         -3.8003921138        2.2077320221       -1.5770471773
 H         -0.9938825001        4.0864578610        0.7879713237
 H         -0.8818954824        2.7090098906        1.8954911992
 H          1.1583351408        3.7076628055       -0.1274998195
 H          1.4093566995        3.1385962866        1.5230817685
 H          0.7062248450        0.8267378069        0.7462056700
 H          1.1943540372        1.8387841053       -2.0807924089
 H          0.3823285102        0.3639222854       -1.5699272050
 H         -1.5033828446        1.7343718144       -2.0900747844
 H         -0.6540650785        3.2174891055       -1.6688788921
 H          3.5307441545        3.1461793666       -0.1845355687
 H          0.3116712517       -1.4489907809        0.3279973644
 H          0.7990956583       -4.0798195836        0.3925761120
 H          6.3718844507       -0.9026071372       -0.2571356767
 H         -3.8503553834       -1.8930607763        2.5678303927
 H         -4.9158882523       -2.7701750392        1.4571031599
 H         -3.3642528826       -3.4503441443        1.9166666308
 H         -2.5710969930       -3.5559046425       -0.6145634169
 H         -4.2447647306       -3.1297739032       -0.9025181732
 H         -2.9442600164       -2.1816300312       -1.6372997365
  57
        -81.17579460
 C         -2.4140981403       -2.2015189939       -0.2125024944
 C         -3.8092319229       -1.7529956540       -0.6311033264
 C         -3.9109978505       -1.6178193807       -2.1449253209
 N         -4.1618542388       -0.4911347190        0.0882843158
 C         -5.5920633895       -0.1045241922        0.0187130511
 C         -5.5752410287        1.3766558455        0.3614942057
 C         -4.3453800906        1.8618765276       -0.4040673081
 C         -3.3410380679        0.7103539076       -0.2224511367
 C         -2.4457784517        0.9285392287        1.0127139662
 O         -2.7006618790        0.2685362203        2.0258920245
 N         -1.4712120498        1.8234799388        0.9447986396
 C         -0.5866061768        2.0051316037        2.0881450718
 C          0.8699337453        2.1188006791        1.6248810859
 C          1.0574916842        1.2388674986        0.3851819438
 C          0.2444990217        1.8220594021       -0.7859928693
 C         -1.0226470132        2.5091947003       -0.2491341653
 N          2.4483927548        1.0937216070        0.0278893654
 C          3.3556144085        2.0907280159       -0.1816605996
 N          4.5389291913        1.6748532860       -0.5164014021
 C          4.4416149462        0.3027552378       -0.5420299382
 C          3.1214552292       -0.0739192989       -0.1996028271
 C          2.7959707985       -1.4316861950       -0.1667277435
 C          1.6817126025       -2.2685052468        0.1011748970
 C          2.1060111347       -3.5548352034       -0.0674243208
 N          3.4196818380       -3.5722347094       -0.4281444932
 C          3.8768305458       -2.2948099605       -0.4970771427
 N          5.1279799965       -1.9521183702       -0.8219062473
 C          5.4053640544       -0.6658795693       -0.8425438147
 H         -2.7380671883        0.5357344147       -1.1101357765
 H          3.9776697985       -4.3890380271       -0.6110309335
 H         -4.5386509915       -2.4937636567       -0.2907922663
 H         -3.9200942292       -0.6388890717        1.1023172843
 H         -5.9561595418       -0.2520585375       -0.9970878081
 H         -6.1820679125       -0.7069491561        0.7054958569
 H         -5.4405795881        1.5220232683        1.4336051165
 H         -6.4849132938        1.8833113565        0.0535119743
 H         -4.5848526776        1.9874795270       -1.4591676838
 H         -3.9696390543        2.8044620579       -0.0153811817
 H         -0.8818582088        2.9022936172        2.6389528832
 H         -0.7197285037        1.1427918588        2.7450355418
 H          1.1236702865        3.1511143019        1.3864411405
 H          1.5326677069        1.7902270164        2.4247467608
 H          0.7030865022        0.2321142680        0.6239367540
 H          0.8507494669        2.5510997354       -1.3232525503
 H         -0.0055070813        1.0230564645       -1.4839408883
 H         -1.7981397183        2.5356562737       -1.0088808678
 H         -0.7974225948        3.5385637939        0.0354814970
 H          3.1111403282        3.1285802653       -0.0746219952
 H          0.6953228476       -1.9731559466        0.3948360028
 H          1.5570271493       -4.4681351545        0.0465293466
 H          6.4160986364       -0.3897561573       -1.1040784234
 H         -4.8862091711       -1.2638943197       -2.4631012522
 H         -3.1477740156       -0.9602714769       -2.5504691567
 H         -3.7614151078       -2.5985600589       -2.5868844407
 H         -2.2259723500       -3.2029913753       -0.5873171192
 H         -1.6482082207       -1.5467935242       -0.6207057347
 H         -2.3159703930       -2.2241614952        0.8706723180
  57
        -81.17572146
 C         -7.1622381485       -0.5382835492        0.5847443507
 C         -5.7041347042       -0.8460606929        0.2660807167
 C         -4.9480524870       -1.1731011383        1.5487259082
 N         -5.0775408848        0.3274359805       -0.4070942977
 C         -5.7918133690        0.8100807299       -1.6136246673
 C         -4.7295072654        1.5929959884       -2.3684318565
 C         -3.5030671492        0.6980065281       -2.2081884263
 C         -3.6439354973        0.1554483583       -0.7752065180
 C         -2.8498099695        1.0005308504        0.2368056363
 O         -3.4882282562        1.7575156612        0.9763987838
 N         -1.5286169895        0.9024279735        0.2680165472
 C         -0.8008079991        1.7416540501        1.2145779277
 C          0.6134542475        1.9934484913        0.7136166873
 C          1.3926758519        0.6744978183        0.7012258327
 C          0.4668268560       -0.4803037342        0.2635580853
 C         -0.7153474269        0.0264956169       -0.5569018137
 N          2.5725526526        0.7311315251       -0.1398105692
 C          2.8822906502        1.5492065491       -1.1857640696
 N          4.0242896922        1.2917023159       -1.7487698879
 C          4.5356823382        0.2221185186       -1.0522050626
 C          3.6223448262       -0.1413005289       -0.0363826649
 C          3.9326984034       -1.2192672294        0.7944569024
 C          3.3702947223       -1.9365411307        1.8812309527
 C          4.2622346511       -2.9172404729        2.2063908213
 N          5.3482639113       -2.8571771321        1.3845866278
 C          5.1831844997       -1.8322938803        0.5078286317
 N          6.0590534276       -1.4946136129       -0.4448605588
 C          5.7356867369       -0.4785852978       -1.2165449226
 H         -3.3700804329       -0.8965225113       -0.7102437914
 H          6.1489231188       -3.4657076056        1.4109528736
 H         -5.6485565535       -1.6876759610       -0.4317227709
 H         -5.0263666942        1.1067898295        0.2969206452
 H         -6.1140076789       -0.0547405191       -2.1953406996
 H         -6.6528254185        1.4134309694       -1.3397179983
 H         -4.5621253040        2.5620664489       -1.8980414368
 H         -4.9962291185        1.7535645643       -3.4087441995
 H         -3.5357370849       -0.1205735951       -2.9253647552
 H         -2.5754359558        1.2446432474       -2.3514685682
 H         -1.3484463794        2.6806635761        1.3217559674
 H         -0.7785635876        1.2555168428        2.1950795989
 H          0.5588245514        2.4217027941       -0.2853564759
 H          1.1077750374        2.7176584373        1.3592466111
 H          1.7611230030        0.4682108616        1.7119993685
 H          1.0354146850       -1.2012858219       -0.3234211380
 H          0.0895580796       -0.9966405317        1.1457253793
 H         -1.3024512639       -0.8225852475       -0.9001850132
 H         -0.3507220958        0.5659791540       -1.4367460395
 H          2.2549015128        2.3496075164       -1.5200964603
 H          2.4316199907       -1.7567901647        2.3632591596
 H          4.1968420397       -3.6618304817        2.9746470660
 H          6.4428915458       -0.2088862094       -1.9868242532
 H         -3.9285834047       -1.4971342700        1.3625738597
 H         -4.9205662810       -0.3070003243        2.2062800260
 H         -5.4571266306       -1.9768320948        2.0717245803
 H         -7.5881878103       -1.3669501480        1.1423774423
 H         -7.2404317809        0.3530674931        1.2020526414
 H         -7.7592144426       -0.4062553717       -0.3115530253
  57
        -81.17570604
 C         -3.6406857125       -2.6385576107       -0.8822758004
 C         -3.4912788401       -1.8415328904        0.4068770002
 C         -4.2140987465       -2.5145764033        1.5655793523
 N         -3.9859782388       -0.4385924851        0.2657013418
 C         -5.3803287358       -0.2675189142       -0.2049596161
 C         -5.4088861298        1.1764973022       -0.6804714873
 C         -4.0722240705        1.2962537211       -1.4115912571
 C         -3.1159225786        0.4584987993       -0.5432387452
 C         -2.3577266256        1.3276093133        0.4790480253
 O         -2.7213540223        1.2690015687        1.6586020315
 N         -1.3793038193        2.1106821852        0.0488074057
 C         -0.6226633623        2.9028960260        1.0097592176
 C          0.8756681465        2.8477168392        0.6884400507
 C          1.1870016399        1.4709728681        0.1026824922
 C          0.5183608699        1.3474664207       -1.2799772835
 C         -0.8124421111        2.1191897664       -1.2838973465
 N          2.6027600412        1.2055592268        0.0033649299
 C          3.6328156803        2.0807050876       -0.1743007011
 N          4.7983360176        1.5176613387       -0.2842296359
 C          4.5557300277        0.1667406151       -0.1864326530
 C          3.1683916612       -0.0387199859       -0.0105533394
 C          2.6872571167       -1.3433722509        0.1052024553
 C          1.4552584158       -2.0251959823        0.2751798177
 C          1.7451158874       -3.3589112853        0.3022999469
 N          3.0864499896       -3.5502488755        0.1562808769
 C          3.6959278798       -2.3420899875        0.0329913083
 N          5.0116921579       -2.1627931154       -0.1286476816
 C          5.4346333710       -0.9211552827       -0.2375461629
 H         -2.4160292645       -0.1316168607       -1.1331884386
 H          3.5633033867       -4.4358953339        0.1417490500
 H         -2.4300615148       -1.7549956340        0.6622026439
 H         -3.9075697436        0.0004425696        1.2178703267
 H         -5.5603707168       -0.9420147574       -1.0402372595
 H         -6.0844903927       -0.4736637141        0.5967083550
 H         -5.4435166460        1.8604804701        0.1679001164
 H         -6.2564955938        1.3826271639       -1.3271636820
 H         -4.1499046168        0.8659664348       -2.4091090989
 H         -3.7508834712        2.3305082722       -1.5010566549
 H         -0.9780074849        3.9366762915        0.9901355250
 H         -0.8233905976        2.4924260214        2.0018187760
 H          1.1452151515        3.6232312196       -0.0279511226
 H          1.4482106975        3.0159956479        1.5997219867
 H          0.7853449203        0.7095699508        0.7815461462
 H          1.1814812487        1.7644090576       -2.0382963578
 H          0.3678472717        0.2941965425       -1.5159057276
 H         -1.4991569653        1.6971258167       -2.0112974516
 H         -0.6381646562        3.1627045134       -1.5527193217
 H          3.4938665764        3.1421585862       -0.2100603334
 H          0.4825230939       -1.5891139666        0.3746928751
 H          1.0845951376       -4.1948967484        0.4172857643
 H          6.4970980496       -0.7781776557       -0.3686630217
 H         -4.1089067026       -1.9367639406        2.4807647233
 H         -5.2695387665       -2.6496680320        1.3484418762
 H         -3.7818288324       -3.4953891831        1.7392291083
 H         -3.3006403465       -2.0831435325       -1.7512871105
 H         -3.0372129925       -3.5384044762       -0.8084035247
 H         -4.6691709053       -2.9495608744       -1.0392921644
  57
        -81.17565582
 C         -5.2459228959        1.3450472295        0.6227167170
 C         -5.2537822872       -0.0584967214        0.0288311612
 C         -5.4437912355       -1.1211637345        1.1017367507
 N         -4.0111129934       -0.2757465524       -0.7781194774
 C         -3.9862497934       -1.5521654887       -1.5468070118
 C         -2.9383858594       -2.4039323291       -0.8471047848
 C         -1.8851230910       -1.3677123549       -0.4657412991
 C         -2.7243076399       -0.1516386658       -0.0371107011
 C         -2.1358788069        1.2081202954       -0.4572638671
 O         -2.6427657807        1.7671781127       -1.4370190207
 N         -1.1552695588        1.7384812708        0.2598533841
 C         -0.6750091883        3.0752110217       -0.0433242509
 C          0.8136105552        3.0780837597       -0.4166022330
 C          1.5770872725        1.9822725603        0.3366376514
 C          0.8605076630        1.6859174485        1.6610556676
 C         -0.5274217605        1.0936734226        1.4014536181
 N          1.7028987170        0.7644650274       -0.4420337421
 C          0.9657464502        0.3332613863       -1.5034464232
 N          1.2894439859       -0.8495455335       -1.9353953724
 C          2.3167567646       -1.2613431210       -1.1198086171
 C          2.5844687965       -0.2461589151       -0.1721647985
 C          3.6026503080       -0.4483766399        0.7609840743
 C          4.2181976651        0.2298050240        1.8440092966
 C          5.1965502229       -0.5964931986        2.3170058514
 N          5.2255406032       -1.7532910682        1.5963489572
 C          4.2677323143       -1.6991461794        0.6342410913
 N          4.0219746856       -2.6674824021       -0.2541941379
 C          3.0562351347       -2.4493565587       -1.1210708609
 H         -2.9121251077       -0.1681706192        1.0356575881
 H          5.8565204358       -2.5243337532        1.7357030349
 H         -6.0777980637       -0.1263485616       -0.6875538588
 H         -3.9522457925        0.5275981945       -1.4480381478
 H         -4.9735718327       -2.0059678218       -1.5659961762
 H         -3.6718209575       -1.3418100615       -2.5687600366
 H         -2.5352826347       -3.1737068724       -1.4987196584
 H         -3.3444634576       -2.8796751731        0.0439119714
 H         -1.2391627739       -1.7303244595        0.3293271782
 H         -1.2630327913       -1.1268746143       -1.3280848791
 H         -1.2766441601        3.4731605531       -0.8609275556
 H         -0.8394869240        3.6947097801        0.8417753828
 H          0.9496063406        2.9528931025       -1.4901079536
 H          1.2301599322        4.0486409631       -0.1513518580
 H          2.5982410045        2.3186175362        0.5430038674
 H          1.4383301761        0.9751061404        2.2509856477
 H          0.7936726053        2.6158832124        2.2235080459
 H         -1.1485572003        1.2236549910        2.2939340781
 H         -0.4228461202        0.0290464327        1.1959826937
 H          0.1919643193        0.9190923062       -1.9574904622
 H          3.9807230770        1.2027566976        2.2240000810
 H          5.8803718014       -0.4366424244        3.1268536329
 H          2.8636533560       -3.2327854010       -1.8384516567
 H         -5.5075413144       -2.1177062191        0.6770640058
 H         -4.6503752451       -1.1024284294        1.8426847016
 H         -6.3786175058       -0.9245778399        1.6187260077
 H         -4.5342880625        1.4358575168        1.4384665787
 H         -5.0075676354        2.0900560420       -0.1329471904
 H         -6.2316030218        1.5732537584        1.0168230352
  57
        -81.17542751
 C         -3.7569475122        2.6340473259        1.3338228864
 C         -4.8611867271        1.5935316279        1.4719900481
 C         -4.7862704552        0.8859493072        2.8194076514
 N         -4.7982014611        0.6450376372        0.3188117175
 C         -6.0159938231       -0.1785481306        0.1222412000
 C         -5.5236587101       -1.3463354789       -0.7174556407
 C         -4.1721390253       -1.6497353816       -0.0731135721
 C         -3.6136581883       -0.2525555164        0.2494572555
 C         -2.7502859140        0.2936173341       -0.9040973594
 O         -3.2489059416        1.1625760201       -1.6282333778
 N         -1.5357794271       -0.2024811280       -1.0856872706
 C         -0.7098298282        0.3252054864       -2.1644515931
 C          0.7585237047        0.4037338381       -1.7398525598
 C          0.8341758169        0.7530792826       -0.2496706659
 C          0.2183887626       -0.3728384358        0.6003423083
 C         -0.8449990797       -1.1272855458       -0.2121692230
 N          2.1883125684        1.0480403243        0.1566194398
 C          2.6188745930        2.2722824024        0.5758056752
 N          3.8842369608        2.3346592682        0.8514705006
 C          4.3615503869        1.0700429181        0.6012080241
 C          3.2986575443        0.2431526829        0.1586418598
 C          3.5853132703       -1.0929225393       -0.1440191385
 C          2.9242714663       -2.2682354047       -0.5892180806
 C          3.8673656556       -3.2514660825       -0.6665263312
 N          5.0827513879       -2.7636196999       -0.2945199565
 C          4.9514619329       -1.4516663895        0.0317371022
 N          5.9590920169       -0.6763337266        0.4440558651
 C          5.6628333947        0.5734221555        0.7265749831
 H         -3.0653690906       -0.2259610719        1.1879825876
 H          5.9482549985       -3.2751842297       -0.2621121729
 H         -5.8314029463        2.0910801967        1.3843141977
 H         -4.6581177182        1.2244795626       -0.5495199864
 H         -6.3720177034       -0.5309398678        1.0896215346
 H         -6.7966984949        0.4072274464       -0.3574733440
 H         -5.3924777028       -1.0437108293       -1.7566366827
 H         -6.2011482024       -2.1942971098       -0.6850128719
 H         -4.3120877735       -2.2184119245        0.8452402688
 H         -3.5227375981       -2.2123344685       -0.7382225001
 H         -0.8145133301       -0.3104627128       -3.0483985140
 H         -1.0950863348        1.3165271188       -2.4147035434
 H          1.2769998302       -0.5351583963       -1.9246989330
 H          1.2606015381        1.1738045594       -2.3256287188
 H          0.2725798446        1.6815513457       -0.0930755138
 H          0.9971076430       -1.0675440248        0.9109815920
 H         -0.2178143118        0.0572276011        1.5017688036
 H         -1.5352242923       -1.6398984970        0.4510559656
 H         -0.3722620973       -1.8784926044       -0.8480749616
 H          1.9532465973        3.1082545378        0.6677455004
 H          1.8881759133       -2.3923331904       -0.8244113298
 H          3.7528038721       -4.2748909214       -0.9634674911
 H          6.4725582229        1.2042289646        1.0619783438
 H         -5.0479035896        1.5972319800        3.5973543997
 H         -5.4828494862        0.0567055006        2.8884385649
 H         -3.7851808904        0.5247645765        3.0362069957
 H         -2.7739501421        2.1918289724        1.4744884104
 H         -3.7850559282        3.1115610027        0.3570306714
 H         -3.8868413178        3.4041155717        2.0881337742
  57
        -81.17542619
 C         -6.4462546474        0.0139610680       -0.4079092455
 C         -5.1562742105       -0.0770919633        0.3996470528
 C         -4.8933320491        1.2628193724        1.0771939085
 N         -4.0355040957       -0.4491724396       -0.5178534889
 C         -4.1585529811       -1.8263988152       -1.0863010116
 C         -2.9127235555       -2.5711869586       -0.6201711665
 C         -1.8696958861       -1.4629958201       -0.5563013856
 C         -2.6671112379       -0.3046147831        0.0562710803
 C         -2.1573372125        1.0739355093       -0.3907588184
 O         -2.7103813798        1.5937502609       -1.3650511255
 N         -1.1701720139        1.6455576706        0.2866934337
 C         -0.7320849623        2.9854786833       -0.0610500538
 C          0.7434675762        3.0128286390       -0.4819600894
 C          1.5602114030        1.9636796314        0.2825009078
 C          0.8846398178        1.6789991769        1.6306080112
 C         -0.4883409635        1.0364620629        1.4175587174
 N          1.7097426356        0.7288408308       -0.4646096606
 C          0.9579822125        0.2375145374       -1.4894664902
 N          1.3152555294       -0.9436450167       -1.8974522492
 C          2.3813957944       -1.2914944222       -1.1021861432
 C          2.6369490475       -0.2393176685       -0.1920804089
 C          3.6863023513       -0.3770122353        0.7181160743
 C          4.3026914257        0.3529634940        1.7664838286
 C          5.3214977347       -0.4242450319        2.2372810230
 N          5.3754873391       -1.5989614632        1.5476225874
 C          4.3934034930       -1.6061701739        0.6087405281
 N          4.1607268319       -2.6082571898       -0.2451822431
 C          3.1647650384       -2.4508948841       -1.0908085928
 H         -2.7141005842       -0.4011123414        1.1404462585
 H          6.0356792834       -2.3439235559        1.6931786738
 H         -5.2297978454       -0.8684968535        1.1514179066
 H         -4.0322817642        0.2569503910       -1.2865862017
 H         -5.0676357789       -2.3027087037       -0.7290200641
 H         -4.1886876854       -1.7662114680       -2.1726386401
 H         -2.6304102834       -3.3649753916       -1.3053578026
 H         -3.0641192039       -3.0039550033        0.3680840053
 H         -1.0046814865       -1.7429404157        0.0384129963
 H         -1.5205730174       -1.2052440069       -1.5563813115
 H         -1.3677038611        3.3485097250       -0.8691945858
 H         -0.8839846570        3.6231462993        0.8132756188
 H          0.8480853183        2.8532755479       -1.5544327372
 H          1.1418441206        4.0026301873       -0.2641078857
 H          2.5739596162        2.3387906039        0.4554974725
 H          1.4985673947        1.0018060981        2.2237075764
 H          0.7999067641        2.6197779789        2.1721466922
 H         -1.0871423860        1.1568703520        2.3266389606
 H         -0.3519975456       -0.0273858722        1.2228974725
 H          0.1471979473        0.7788462622       -1.9334534121
 H          4.0387725206        1.3268873749        2.1259549167
 H          6.0179838450       -0.2176999156        3.0254536223
 H          2.9818329563       -3.2616857593       -1.7798304001
 H         -4.0627205109        1.2271623646        1.7749181023
 H         -4.6996725878        2.0354599346        0.3368901960
 H         -5.7772768555        1.5523768681        1.6374717347
 H         -6.3793496792        0.8211635788       -1.1336031369
 H         -6.6797715326       -0.9064818869       -0.9328306345
 H         -7.2748953037        0.2317877430        0.2590457427
  57
        -81.17542311
 C         -3.6460905006        2.6197852048        1.3519650315
 C         -4.7780841925        1.6116240495        1.5062673768
 C         -4.6977306163        0.8941373635        2.8480139836
 N         -4.7661503455        0.6692104040        0.3464138505
 C         -6.0066311149       -0.1248771396        0.1732493334
 C         -5.5618833832       -1.2926430184       -0.6926857962
 C         -4.2020712962       -1.6347359070       -0.0861108902
 C         -3.6049423822       -0.2550977554        0.2433017038
 C         -2.7497717058        0.2862362587       -0.9184422585
 O         -3.2436534679        1.1703878700       -1.6270410735
 N         -1.5469434054       -0.2298892003       -1.1215017342
 C         -0.7175077113        0.3022353424       -2.1948773417
 C          0.7472290874        0.3921025206       -1.7570192500
 C          0.8069052545        0.7200166147       -0.2610699381
 C          0.1998717919       -0.4266983387        0.5672263030
 C         -0.8599437018       -1.1695141458       -0.2607038718
 N          2.1532897605        1.0265959781        0.1615295592
 C          2.5630001354        2.2485890326        0.6073563467
 N          3.8241537561        2.3221339100        0.8989061321
 C          4.3207768449        1.0684821782        0.6317198944
 C          3.2738674418        0.2360324161        0.1622897709
 C          3.5812487701       -1.0906132909       -0.1607953097
 C          2.9406253758       -2.2660423690       -0.6347083686
 C          3.8974332431       -3.2353408388       -0.7191714371
 N          5.1020540118       -2.7387873171       -0.3243065612
 C          4.9499833409       -1.4347742403        0.0240199906
 N          5.9426076300       -0.6541653314        0.4620328674
 C          5.6268652589        0.5863450637        0.7634759405
 H         -3.0393441059       -0.2541349307        1.1718176149
 H          5.9737432297       -3.2397323736       -0.2914737256
 H         -5.7346447511        2.1382033785        1.4410467008
 H         -4.6333428294        1.2512327986       -0.5211357161
 H         -6.3443757403       -0.4814635630        1.1456061501
 H         -6.7867000215        0.4834700424       -0.2786061597
 H         -5.4496279290       -0.9799323940       -1.7310877629
 H         -6.2574301758       -2.1255716513       -0.6535979526
 H         -4.3323662223       -2.2143110155        0.8268171135
 H         -3.5812268783       -2.2009135516       -0.7751122355
 H         -0.8099304061       -0.3359565810       -3.0782166386
 H         -1.1084058836        1.2901442948       -2.4492479864
 H          1.2779684688       -0.5379740173       -1.9511853182
 H          1.2453885988        1.1764019388       -2.3269838969
 H          0.2316475516        1.6385552865       -0.0951873696
 H          0.9835033829       -1.1224918489        0.8624721135
 H         -0.2370718509       -0.0176299253        1.4780533533
 H         -1.5528958298       -1.6946457979        0.3898747360
 H         -0.3840464314       -1.9087598677       -0.9079909679
 H          1.8858803367        3.0745231808        0.7058074793
 H          1.9088929983       -2.3994488061       -0.8838568685
 H          3.7995533152       -4.2545279540       -1.0359927599
 H          6.4244271393        1.2214321987        1.1192916754
 H         -5.4256851114        0.0936815250        2.9315216659
 H         -3.7070510356        0.4914647547        3.0377492602
 H         -4.9104305565        1.6115732886        3.6351818880
 H         -3.6760051920        3.1002224343        0.3766445916
 H         -3.7410746757        3.3916310888        2.1096470229
 H         -2.6742788374        2.1487382271        1.4760498099
  57
        -81.17541975
 C         -6.5120243887        0.0670822605       -0.3099871756
 C         -5.1984736470       -0.0422202046        0.4561406669
 C         -4.8903076375        1.2950746034        1.1193528710
 N         -4.1146238984       -0.4376014563       -0.4951818413
 C         -4.2816196112       -1.8144467258       -1.0541794912
 C         -3.0197262886       -2.5730460461       -0.6560815826
 C         -1.9662183024       -1.4733993136       -0.6265728347
 C         -2.7266887560       -0.3176483133        0.0349934619
 C         -2.2105744305        1.0579273704       -0.4114746137
 O         -2.7730505847        1.5884367860       -1.3743341097
 N         -1.2037127262        1.6121779451        0.2515645887
 C         -0.7482294399        2.9440730381       -0.1036696053
 C          0.7247020408        2.9471856999       -0.5316342872
 C          1.5414454810        1.9204633216        0.2643748603
 C          0.8466077998        1.6405761986        1.6034596346
 C         -0.5183729419        0.9886391283        1.3731168757
 N          1.7253874903        0.6782402178       -0.4621494677
 C          0.9758502680        0.1411648370       -1.4655146960
 N          1.3698415904       -1.0331964102       -1.8588909212
 C          2.4600974153       -1.3276630783       -1.0746076920
 C          2.6895155367       -0.2516305351       -0.1856386175
 C          3.7525176453       -0.3373229428        0.7149201062
 C          4.3503604859        0.4289204420        1.7479729398
 C          5.4016935851       -0.3034365168        2.2190006558
 N          5.4936050360       -1.4842140633        1.5438350521
 C          4.5033449560       -1.5410338176        0.6153042446
 N          4.2984815068       -2.5636423266       -0.2213421515
 C          3.2866926456       -2.4565502366       -1.0560794317
 H         -2.7384872770       -0.4328774592        1.1181457578
 H          6.1825760425       -2.2019412250        1.6928439315
 H         -5.2612569228       -0.8292091812        1.2135574542
 H         -4.1224563323        0.2654875243       -1.2659691022
 H         -5.1740529880       -2.2811063861       -0.6454765356
 H         -4.3728936520       -1.7550719399       -2.1370919471
 H         -2.7755659561       -3.3601508186       -1.3632428360
 H         -3.1278538167       -3.0176494631        0.3324997748
 H         -1.0753927026       -1.7647500229       -0.0774629586
 H         -1.6642002329       -1.2040788862       -1.6389032840
 H         -1.3815991523        3.3117100060       -0.9115990580
 H         -0.8870839317        3.5897401793        0.7669283947
 H          0.8212699333        2.7483314798       -1.5983317753
 H          1.1282012211        3.9426393863       -0.3525534683
 H          2.5460230025        2.3122885342        0.4513159249
 H          1.4560174928        0.9698122201        2.2088173085
 H          0.7480070347        2.5829577667        2.1396916277
 H         -1.1204679677        1.0857250684        2.2827768963
 H         -0.3704832946       -0.0704206583        1.1589340544
 H          0.1391194457        0.6457800217       -1.9045201083
 H          4.0517437654        1.3957948236        2.0991289337
 H          6.0967378576       -0.0609453025        2.9981289797
 H          3.1249735800       -3.2843040333       -1.7301640135
 H         -5.7487579988        1.5999698545        1.7103627996
 H         -4.0354771199        1.2472734920        1.7864486296
 H         -4.7111394206        2.0628372669        0.3703913467
 H         -6.7779828365       -0.8523819999       -0.8210539407
 H         -7.3147892397        0.3035070419        0.3817811396
 H         -6.4545721964        0.8686885265       -1.0426318525
  57
        -81.17539729
 C         -5.5154793574       -0.9616992839        1.1288286193
 C         -5.1692299896        0.1962713039        0.2042395876
 C         -6.3403099364        0.5809786508       -0.6898698758
 N         -3.9746582713       -0.0959296022       -0.6487801625
 C         -4.0220699714       -1.3570015176       -1.4389488359
 C         -2.9815027349       -2.2577223121       -0.7911581236
 C         -1.8846930992       -1.2662388222       -0.4116782328
 C         -2.6770816535       -0.0454918409        0.0829568465
 C         -2.0623509093        1.3221280779       -0.2709407056
 O         -2.5797374142        1.9512624860       -1.2017584162
 N         -1.0526360986        1.7856142421        0.4518195130
 C         -0.5406215581        3.1232545877        0.2102163621
 C          0.9362244686        3.1028002816       -0.2065565007
 C          1.6877482276        1.9485224818        0.4674212783
 C          0.9962801036        1.5999882211        1.7925208185
 C         -0.4135423033        1.0598163066        1.5375151675
 N          1.7607324373        0.7710352002       -0.3771661077
 C          0.9819114343        0.4128596654       -1.4359775995
 N          1.2622805710       -0.7536453089       -1.9370003520
 C          2.3021482697       -1.2315758304       -1.1750562669
 C          2.6231609888       -0.2734312661       -0.1855451068
 C          3.6619713985       -0.5483232161        0.7053370503
 C          4.3253455300        0.0577923928        1.8027443833
 C          5.2948978158       -0.8155559816        2.2038718382
 N          5.2734848730       -1.9339225944        1.4246466222
 C          4.2904544882       -1.8068404654        0.4954247094
 N          3.9947430152       -2.7215285817       -0.4336954293
 C          3.0107945677       -2.4352540573       -1.2592802755
 H         -2.8579145350       -0.1063498458        1.1570499341
 H          5.8870653740       -2.7269534549        1.5063226609
 H         -4.8949160440        1.0694822766        0.8049389219
 H         -3.8895094238        0.7156739331       -1.3054221510
 H         -5.0211773343       -1.7810222971       -1.4276504770
 H         -3.7408403667       -1.1387482665       -2.4684836882
 H         -2.6210228145       -3.0225801704       -1.4728963460
 H         -3.3813917514       -2.7442327303        0.0970133354
 H         -1.2247543637       -1.6740731103        0.3490938405
 H         -1.2841673673       -1.0130790823       -1.2856731094
 H         -1.1522837365        3.5846872492       -0.5655181544
 H         -0.6606556064        3.6956970274        1.1332280804
 H          1.0375542030        3.0287655408       -1.2885890259
 H          1.3885520842        4.0464530030        0.0946341387
 H          2.7225883939        2.2463680973        0.6643243458
 H          1.5682856759        0.8426879796        2.3277861976
 H          0.9696306353        2.4991201765        2.4060686649
 H         -1.0086615310        1.1533676901        2.4518327472
 H         -0.3432777515        0.0066548665        1.2687109713
 H          0.2105646422        1.0399471591       -1.8358096751
 H          4.1237764561        1.0151536131        2.2389020321
 H          6.0052625794       -0.7144636648        3.0001954736
 H          2.7785709329       -3.1748921561       -2.0106373803
 H         -6.6620157755       -0.2475687839       -1.3137652120
 H         -7.1826821737        0.8793579359       -0.0731493146
 H         -6.0797441080        1.4213990264       -1.3289675020
 H         -6.2911789855       -0.6371990840        1.8162869862
 H         -5.9008327768       -1.8150881683        0.5798986653
 H         -4.6622720738       -1.2792941790        1.7203777431
  57
        -81.17538386
 C         -6.6487250762        0.1793241540       -0.1075020670
 C         -5.2951207766        0.0389582977        0.5796132051
 C         -4.8995616351        1.3759677637        1.1948207764
 N         -4.2864978101       -0.4140018942       -0.4268914645
 C         -4.5388045479       -1.7943691221       -0.9451044673
 C         -3.2637016878       -2.5824981552       -0.6574310897
 C         -2.1866121449       -1.5067776062       -0.7091195284
 C         -2.8659544249       -0.3394258975        0.0166125095
 C         -2.3299366616        1.0183974098       -0.4563066707
 O         -2.9119454492        1.5572676566       -1.4026187682
 N         -1.2788087321        1.5426206704        0.1616267965
 C         -0.7788298771        2.8440516115       -0.2419614652
 C          0.6855373561        2.7731789672       -0.6869185314
 C          1.5010388186        1.8174131463        0.1981118372
 C          0.7664231424        1.5770890412        1.5233413122
 C         -0.5868381352        0.9102492471        1.2755432073
 N          1.7574688502        0.5478391934       -0.4541763103
 C          1.0025097270       -0.1126858552       -1.3766270529
 N          1.4687737727       -1.2770093300       -1.7167284905
 C          2.6179211159       -1.4326196673       -0.9775363869
 C          2.8031307955       -0.2859563162       -0.1698786941
 C          3.9080512819       -0.2331271032        0.6813422358
 C          4.4836424830        0.6362852619        1.6428596135
 C          5.6118612288        0.0196297094        2.1014701860
 N          5.7734503829       -1.1857274755        1.4854675937
 C          4.7505511532       -1.3766839029        0.6118315308
 N          4.5926762101       -2.4613158249       -0.1540225980
 C          3.5352745893       -2.4884995736       -0.9369901472
 H         -2.8131511508       -0.4693112794        1.0966205550
 H          6.5244617680       -1.8366578017        1.6412462325
 H         -5.3382238342       -0.7303398114        1.3563997182
 H         -4.3144409224        0.2742672970       -1.2097645649
 H         -5.3983552464       -2.2314011678       -0.4433105107
 H         -4.7353729684       -1.7490189627       -2.0143663386
 H         -3.0967950350       -3.3697204184       -1.3866196249
 H         -3.2985839588       -3.0323343420        0.3339789171
 H         -1.2582075300       -1.8179567739       -0.2391443988
 H         -1.9688676152       -1.2348537912       -1.7425551854
 H         -1.4063138406        3.2061669120       -1.0571352205
 H         -0.8826839352        3.5274961234        0.6042804902
 H          0.7563256459        2.4599122446       -1.7280773392
 H          1.1064727815        3.7754468123       -0.6234521669
 H          2.4838756880        2.2510645005        0.4029428386
 H          1.3632243056        0.9288132872        2.1653918598
 H          0.6470188926        2.5334988879        2.0294364158
 H         -1.1919511946        0.9846913455        2.1852083480
 H         -0.4232658864       -0.1442196622        1.0458244994
 H          0.1071122785        0.2977371528       -1.7974432029
 H          4.1179523441        1.5916468035        1.9606086735
 H          6.3167560565        0.3609111227        2.8333512205
 H          3.4108435510       -3.3673866009       -1.5516441056
 H         -4.0047310786        1.3088339901        1.8054439289
 H         -4.7439218180        2.1242361535        0.4212958240
 H         -5.7064769237        1.7208030133        1.8345160162
 H         -7.3988788550        0.4591320461        0.6258787414
 H         -6.6090374798        0.9625714418       -0.8608984904
 H         -6.9765975809       -0.7411162562       -0.5793770741
  57
        -81.17536377
 C         -4.9407137429        0.8342808342        2.8245785796
 C         -4.6849461245        1.5582498580        1.5090707782
 C         -5.6907714441        2.6790050418        1.2841485597
 N         -4.7114206077        0.6306476320        0.3382233472
 C         -5.9293643031       -0.1953641877        0.1688113833
 C         -5.4666639359       -1.3046137758       -0.7626173229
 C         -4.0868265337       -1.6390886899       -0.1972158340
 C         -3.5287203001       -0.2648284983        0.2156716063
 C         -2.6561382967        0.3588676411       -0.8913475688
 O         -3.1452220434        1.2844858263       -1.5489150357
 N         -1.4460362308       -0.1340648585       -1.1067414570
 C         -0.6089081614        0.4666711907       -2.1376985048
 C          0.8559765782        0.5090633615       -1.6951750261
 C          0.9178165752        0.7390405148       -0.1813046413
 C          0.2963422968       -0.4516112613        0.5703800966
 C         -0.7679231520       -1.1307873750       -0.3050448207
 N          2.2670370046        1.0028207510        0.2608537714
 C          2.6890233668        2.1892911495        0.7843829126
 N          3.9510544341        2.2316437530        1.0784652600
 C          4.4353389147        0.9934694589        0.7289103237
 C          3.3800650042        0.2035183213        0.2077020294
 C          3.6749731043       -1.1011384313       -0.2041476618
 C          3.0230844915       -2.2363249497       -0.7545573010
 C          3.9715611666       -3.2052548166       -0.9086574678
 N          5.1815080371       -2.7464091329       -0.4854417645
 C          5.0412441916       -1.4683073425       -0.0477356608
 N          6.0416826154       -0.7276833729        0.4392827999
 C          5.7373309160        0.4922148610        0.8250204431
 H         -2.9829309852       -0.2949956320        1.1576070986
 H          6.0490222853       -3.2555576716       -0.4897560827
 H         -3.6791211389        1.9901397720        1.5191649473
 H         -4.6028273396        1.2324038327       -0.5176904841
 H         -6.2166954148       -0.6096761922        1.1336083070
 H         -6.7436694311        0.3994933043       -0.2362856773
 H         -5.3821286279       -0.9376309808       -1.7857837615
 H         -6.1375741007       -2.1584231695       -0.7544793131
 H         -4.1846561574       -2.2833875927        0.6754316478
 H         -3.4590291022       -2.1371632077       -0.9310579828
 H         -0.7075378645       -0.1041747750       -3.0654291704
 H         -0.9891254605        1.4745533748       -2.3198731641
 H          1.3747660821       -0.4133080680       -1.9490628800
 H          1.3643145013        1.3219489715       -2.2137817109
 H          0.3525132119        1.6509556008        0.0436718472
 H          1.0720777807       -1.1727691538        0.8227663878
 H         -0.1407961323       -0.0966400507        1.5033259159
 H         -1.4665297491       -1.6882115901        0.3115871256
 H         -0.2972369938       -1.8327309483       -0.9963659597
 H          2.0193386495        3.0128291847        0.9381275580
 H          1.9891957382       -2.3442247398       -1.0070981719
 H          3.8645652481       -4.1996421486       -1.2939383062
 H          6.5409150305        1.0952942248        1.2207319209
 H         -5.5065026898        3.1856984193        0.3396974425
 H         -6.7100249264        2.3042723359        1.2949334395
 H         -5.5976068312        3.4124058773        2.0795366732
 H         -4.3652339222       -0.0830035849        2.9073097448
 H         -4.6471049856        1.4840069655        3.6439582702
 H         -5.9944765316        0.6059005198        2.9535878859
  57
        -81.17530023
 C         -6.1155886771       -0.6789783760        2.0406204751
 C         -5.6062053108        0.6858464285        1.6007695984
 C         -6.6685465347        1.7662116041        1.7535258456
 N         -5.1099828478        0.6792507617        0.1888749211
 C         -6.0508999126        0.1542157825       -0.8379010393
 C         -5.4603482720       -1.1850704625       -1.2562506064
 C         -3.9599518403       -0.9050203622       -1.2265656409
 C         -3.7979874600        0.0001920224        0.0039582887
 C         -2.7692023172        1.1249453782       -0.1990690505
 O         -3.1998219080        2.2813610471       -0.2910224786
 N         -1.4841560776        0.8149946514       -0.2827613108
 C         -0.9406675833       -0.5292568559       -0.1757622560
 C          0.5160626609       -0.4668244005        0.2689486487
 C          1.3790547922        0.2283390598       -0.7982710939
 C          0.5846341096        1.3673010908       -1.4546042985
 C         -0.5218926965        1.8782231854       -0.5407943326
 N          2.6164636126        0.6839253436       -0.1996444552
 C          2.9013893661        1.8890507980        0.3706842702
 N          4.0921068659        1.9707599446        0.8836611739
 C          4.6616451210        0.7379459698        0.6647878859
 C          3.7314814413       -0.0845737367       -0.0122949262
 C          4.0942837282       -1.3955586191       -0.3257600145
 C          3.5416162740       -2.5470424516       -0.9430679750
 C          4.5015184648       -3.5163026882       -0.8945989288
 N          5.6211956458       -3.0390920102       -0.2808225263
 C          5.4100927733       -1.7469123160        0.0822799682
 N          6.3021294659       -0.9774475169        0.7157314810
 C          5.9286935749        0.2511804989        1.0043614365
 H         -3.5618541939       -0.5792318931        0.8970491694
 H          6.4722977448       -3.5491364732       -0.1157214505
 H         -4.7436362213        0.9658311056        2.2141789444
 H         -4.8747592461        1.6772700719       -0.0305278483
 H         -7.0551245629        0.0718737773       -0.4342953977
 H         -6.0659829278        0.8411470020       -1.6835052565
 H         -5.8044173442       -1.4900109086       -2.2404496845
 H         -5.7180939460       -1.9660236861       -0.5433282151
 H         -3.3753723655       -1.8158850355       -1.1443748899
 H         -3.6589935325       -0.3724132188       -2.1288444562
 H         -1.5088894818       -1.1025717607        0.5559517369
 H         -1.0009008204       -1.0329701288       -1.1451463418
 H          0.5927003907        0.0835703875        1.2079769456
 H          0.8883964744       -1.4749445653        0.4474044358
 H          1.6709130561       -0.4938857265       -1.5666368893
 H          1.2501397768        2.1876348559       -1.7194577577
 H          0.1357099944        1.0022820872       -2.3783142490
 H         -1.0585604039        2.7059050414       -1.0094268027
 H         -0.1130476237        2.2392278571        0.4075801230
 H          2.2097496679        2.7069582793        0.3879016069
 H          2.5655939391       -2.6538595896       -1.3703878901
 H          4.4633180006       -4.5238192424       -1.2581884445
 H          6.6489863484        0.8696699260        1.5190753386
 H         -6.9603674445        1.8403556915        2.7968425918
 H         -6.2827160541        2.7353270717        1.4456827982
 H         -7.5600580898        1.5431888984        1.1748288292
 H         -7.0327309478       -0.9514574968        1.5279958623
 H         -5.3769180483       -1.4591385988        1.8839859085
 H         -6.3338950548       -0.6417685677        3.1039884387
  57
        -81.17529139
 C         -4.1148832583       -2.1202797237       -1.6361176513
 C         -3.8149147176       -1.7825599139       -0.1814485171
 C         -4.5322693176       -2.7299840445        0.7703323337
 N         -4.1782587866       -0.3738002715        0.1587914416
 C         -5.5739577054        0.0391657781       -0.1188624743
 C         -5.4892408288        1.5573175216       -0.1332411027
 C         -4.1900815583        1.7948224226       -0.9019368109
 C         -3.2715162187        0.6650804688       -0.4023903738
 C         -2.3913367651        1.1225456878        0.7774176406
 O         -2.6977091004        0.7222596465        1.9059634803
 N         -1.3750855068        1.9379939537        0.5391021184
 C         -0.5306226182        2.3634492322        1.6488255638
 C          0.9372497226        2.4226266596        1.2173008320
 C          1.1936979371        1.2906517627        0.2197721217
 C          0.4129654609        1.5666054924       -1.0792349862
 C         -0.8796222723        2.3369814314       -0.7617664913
 N          2.5995126069        1.1075304334       -0.0530177362
 C          3.5294840943        2.0684218062       -0.3218308188
 N          4.7199545442        1.6083862641       -0.5600619817
 C          4.6028000910        0.2413371045       -0.4553715686
 C          3.2628153906       -0.0842811546       -0.1400212487
 C          2.9118423520       -1.4279675729        0.0040097306
 C          1.7691620303       -2.2196655798        0.2874658429
 C          2.1774645476       -3.5220506667        0.2655873869
 N          3.5081880399       -3.5916497464       -0.0187125150
 C          3.9919390443       -2.3329661324       -0.1851723743
 N          5.2633302559       -2.0389030886       -0.4778105637
 C          5.5629208103       -0.7644285260       -0.6119312732
 H         -2.6561068424        0.2374985442       -1.1926630749
 H          4.0590455410       -4.4300509285       -0.0929372342
 H         -2.7373778720       -1.8594728984       -0.0038319693
 H         -4.0048284364       -0.2627661895        1.1903824891
 H         -5.8672772927       -0.3300181921       -1.1000488488
 H         -6.2476231411       -0.3499027604        0.6400102652
 H         -5.4100866992        1.9480721283        0.8815452338
 H         -6.3476868813        2.0152114321       -0.6154785473
 H         -4.3632414290        1.6940703785       -1.9725049846
 H         -3.7778554602        2.7809108882       -0.7056689889
 H         -0.8622279558        3.3431256757        2.0041149573
 H         -0.6688817470        1.6445569202        2.4597685237
 H          1.1674577364        3.3826507162        0.7569072033
 H          1.5768039948        2.3102113866        2.0920833864
 H          0.8519583173        0.3543680343        0.6711715607
 H          1.0299461029        2.1613103929       -1.7530274908
 H          0.1953085602        0.6214957229       -1.5764134923
 H         -1.6211374669        2.1715560960       -1.5373493148
 H         -0.6742223255        3.4082409178       -0.7161675564
 H          3.2966389828        3.1142154656       -0.3298434738
 H          0.7740945704       -1.8800188342        0.4903931936
 H          1.6065768217       -4.4131852499        0.4345553061
 H          6.5896706782       -0.5285138247       -0.8492684107
 H         -4.3182174890       -2.4795559727        1.8066582928
 H         -5.6066621979       -2.7097981142        0.6132986912
 H         -4.1893800896       -3.7451907219        0.5947934297
 H         -3.7790608688       -1.3429168031       -2.3160752247
 H         -3.5925566716       -3.0360490262       -1.8971674394
 H         -5.1750625557       -2.2957071604       -1.7924963967
  57
        -81.17517732
 C         -4.6594750235       -1.3907378529       -2.1208494622
 C         -4.2706566769       -1.5061065304       -0.6525306254
 C         -5.0661988255       -2.5975856650        0.0504728186
 N         -4.4473025562       -0.2174982721        0.0825944122
 C         -5.7929928203        0.4002010877        0.0257273648
 C         -5.5279434266        1.8461803429        0.4140385593
 C         -4.2395909642        2.1482308805       -0.3500145351
 C         -3.4439809139        0.8354294943       -0.2356902961
 C         -2.4750376177        0.8538286159        0.9631222763
 O         -2.7837583764        0.1850593988        1.9562342798
 N         -1.3798764533        1.5948622985        0.8938967960
 C         -0.4714817157        1.6124858314        2.0348806441
 C          0.9751283012        1.7970627977        1.5777283352
 C          1.1941773137        1.0099292581        0.2815387791
 C          0.3312052597        1.6067562973       -0.8469211059
 C         -0.8986242706        2.3191180339       -0.2633928952
 N          2.5905517469        0.9832868444       -0.0872159898
 C          3.3921614404        2.0594990747       -0.3338812204
 N          4.6172519808        1.7560220867       -0.6371515281
 C          4.6652091733        0.3817808492       -0.5947360871
 C          3.3871568468       -0.1158658283       -0.2451619256
 C          3.2093342313       -1.4974707339       -0.1423176697
 C          2.1878416188       -2.4342332588        0.1619289006
 C          2.7506358744       -3.6743515180        0.0695837551
 N          4.0642622490       -3.5689285085       -0.2768836247
 C          4.3817087317       -2.2551299439       -0.4139565166
 N          5.5934783958       -1.7975990834       -0.7464382492
 C          5.7310419961       -0.4918548967       -0.8352279910
 H         -2.9110579401        0.5806637498       -1.1507144841
 H          4.7087821452       -4.3296970067       -0.4091725314
 H         -3.2054470701       -1.7456882801       -0.5747145969
 H         -4.2217589851       -0.4175524418        1.0907543830
 H         -6.1665446426        0.3480825477       -0.9953936191
 H         -6.4782937604       -0.1099853878        0.6973602829
 H         -5.3646395801        1.9325502560        1.4885435318
 H         -6.3430348783        2.5062351757        0.1327453277
 H         -4.4636161641        2.3631723660       -1.3940223972
 H         -3.7064405525        2.9945803836        0.0742998920
 H         -0.7591447914        2.4175481059        2.7175160982
 H         -0.5921620532        0.6646855502        2.5655826845
 H          1.2035324814        2.8496449109        1.4136231570
 H          1.6456677241        1.4311951333        2.3549910126
 H          0.9090551431       -0.0301893840        0.4595686364
 H          0.9184971542        2.3248238960       -1.4185776182
 H          0.0293958440        0.8110492063       -1.5274855373
 H         -1.6708465880        2.4130905310       -1.0207932627
 H         -0.6271740999        3.3238269324        0.0671632810
 H          3.0389859196        3.0698997579       -0.2799988491
 H          1.1693264598       -2.2317521534        0.4235601329
 H          2.3012017987       -4.6341623740        0.2289843606
 H          6.7099409418       -0.1231294566       -1.1034660880
 H         -4.8535188926       -3.5553656717       -0.4148826003
 H         -4.7909222176       -2.6677034364        1.1001489649
 H         -6.1348838684       -2.4203940963       -0.0266538186
 H         -4.2534024562       -0.4965463832       -2.5844760588
 H         -4.2637755186       -2.2493160294       -2.6555396147
 H         -5.7378683712       -1.3985525813       -2.2483185580
  57
        -81.17517426
 C         -4.3659467139       -1.5376559120       -2.1063763729
 C         -3.9943797947       -1.5939621672       -0.6302347384
 C         -4.7097530593       -2.7339319464        0.0817148480
 N         -4.2874718368       -0.3104972525        0.0763206871
 C         -5.6749574566        0.2002922710       -0.0187452042
 C         -5.5298302371        1.6666515592        0.3565675549
 C         -4.2530442340        2.0589417315       -0.3858942883
 C         -3.3625524805        0.8111920901       -0.2439478101
 C         -2.4132375588        0.9187449194        0.9655464938
 O         -2.6880694241        0.2491840365        1.9675715637
 N         -1.3726537763        1.7348121325        0.8918194397
 C         -0.4628410312        1.8289138087        2.0269086847
 C          0.9842383312        1.9696280311        1.5490894402
 C          1.1666727961        1.1392704307        0.2743128359
 C          0.3211491387        1.7417575923       -0.8634708845
 C         -0.9179315174        2.4445843297       -0.2853533083
 N          2.5572979141        1.0424424581       -0.1019769590
 C          3.4079630030        2.0738592986       -0.3738808773
 N          4.6146910426        1.7055069888       -0.6789055586
 C          4.5966420936        0.3316428660       -0.6110029369
 C          3.2986953917       -0.0968106802       -0.2441473417
 C          3.0544606957       -1.4658458318       -0.1134930848
 C          1.9910516030       -2.3459580272        0.2155306556
 C          2.4925084670       -3.6135056242        0.1441719227
 N          3.8069535039       -3.5787269194       -0.2128675741
 C          4.1866893094       -2.2846835005       -0.3775286759
 N          5.4166415630       -1.8926976904       -0.7263676489
 C          5.6171598529       -0.5972041006       -0.8411649245
 H         -2.8007104786        0.5858822412       -1.1492634854
 H          4.4133682174       -4.3722788662       -0.3334703702
 H         -2.9145767764       -1.7441259643       -0.5311205132
 H         -4.0689447133       -0.4743371448        1.0921117474
 H         -6.0195381464        0.1079692635       -1.0472240726
 H         -6.3344949471       -0.3534380510        0.6441289205
 H         -5.3955968400        1.7770242470        1.4329229739
 H         -6.3873205756        2.2588137491        0.0512727722
 H         -4.4721449082        2.2480128716       -1.4359009709
 H         -3.7931822971        2.9463768481        0.0404941305
 H         -0.7424641437        2.6843426161        2.6483612697
 H         -0.5884656261        0.9223205451        2.6235514695
 H          1.2315702407        3.0115630619        1.3483537123
 H          1.6577885482        1.6139234805        2.3283220467
 H          0.8394065689        0.1169680651        0.4816173418
 H          0.9158213878        2.4657991555       -1.4196005027
 H          0.0329516646        0.9502090049       -1.5548292118
 H         -1.7000703082        2.5125652223       -1.0353743212
 H         -0.6614904827        3.4591163183        0.0258027796
 H          3.1044233051        3.1009807413       -0.3360970511
 H          0.9862111435       -2.0888538617        0.4821980552
 H          1.9982928597       -4.5470737193        0.3255712642
 H          6.6109955867       -0.2816997933       -1.1221362616
 H         -5.7879380858       -2.6453487953       -0.0135946433
 H         -4.4130148186       -3.6791213532       -0.3629055893
 H         -4.4457385621       -2.7632912744        1.1361945829
 H         -5.4376247554       -1.6380105559       -2.2501419476
 H         -4.0280682745       -0.6209442826       -2.5806365785
 H         -3.8907153531       -2.3693577009       -2.6183218850
  57
        -81.17517383
 C         -4.4377353815       -1.6072866972       -2.0331929771
 C         -4.0725416256       -1.6056908447       -0.5544069230
 C         -4.8189780301       -2.6936941099        0.2054458729
 N         -4.3354431663       -0.2845612304        0.0919508048
 C         -5.7095449308        0.2553408691       -0.0320063654
 C         -5.5295374685        1.7331932657        0.2770732720
 C         -4.2409766645        2.0597919163       -0.4766809679
 C         -3.3817685768        0.7986096510       -0.2737468005
 C         -2.4353307879        0.9370489362        0.9349438333
 O         -2.7292226489        0.3169515461        1.9632270236
 N         -1.3757061826        1.7248729718        0.8333163200
 C         -0.4767348922        1.8501613240        1.9744572097
 C          0.9737046159        1.9904251108        1.5091255809
 C          1.1822043515        1.1164414875        0.2682937647
 C          0.3407437649        1.6634150886       -0.9003957001
 C         -0.9052836530        2.3869759549       -0.3651427376
 N          2.5781613946        1.0284680644       -0.0908072499
 C          3.4233086119        2.0656600411       -0.3579115760
 N          4.6356203077        1.7059971211       -0.6509332368
 C          4.6271428966        0.3321552277       -0.5812263080
 C          3.3288006570       -0.1054845401       -0.2266051070
 C          3.0927242672       -1.4763428270       -0.1005160449
 C          2.0313549587       -2.3642330782        0.2137933765
 C          2.5420028567       -3.6282572787        0.1453031898
 N          3.8603233411       -3.5839261057       -0.1958734000
 C          4.2332842411       -2.2870619999       -0.3534937679
 N          5.4642285121       -1.8862491515       -0.6884511344
 C          5.6566474218       -0.5892879494       -0.8008281750
 H         -2.8214334066        0.5190365703       -1.1648215865
 H          4.4732418486       -4.3731171436       -0.3120434725
 H         -2.9973023631       -1.7783551739       -0.4437046013
 H         -4.1240490823       -0.4080230291        1.1150905046
 H         -6.0531364203        0.1249176104       -1.0567030073
 H         -6.3845611429       -0.2514001012        0.6524953781
 H         -5.3962788382        1.8889793958        1.3479240085
 H         -6.3710751659        2.3317384610       -0.0586580661
 H         -4.4517544889        2.2056633301       -1.5352632494
 H         -3.7612875502        2.9545327593       -0.0892769262
 H         -0.7681432438        2.7167387282        2.5749634539
 H         -0.6022285120        0.9562397586        2.5902125737
 H          1.2107726829        3.0275394881        1.2742887954
 H          1.6410915141        1.6713861890        2.3092686058
 H          0.8686113190        0.0975126962        0.5103258550
 H          0.9367692528        2.3642490804       -1.4844127914
 H          0.0603016631        0.8405235411       -1.5574389403
 H         -1.6773917165        2.4230287405       -1.1276320313
 H         -0.6531942315        3.4138433907       -0.0928949222
 H          3.1113095726        3.0903951274       -0.3258220550
 H          1.0215183626       -2.1141499558        0.4677034820
 H          2.0518145333       -4.5655749523        0.3183102015
 H          6.6510101657       -0.2666503301       -1.0715827313
 H         -4.5586799245       -2.6821821148        1.2612050494
 H         -5.8942997275       -2.5820292434        0.1021181642
 H         -4.5455266156       -3.6653223835       -0.1949140271
 H         -4.0749387543       -0.7219397680       -2.5469385763
 H         -3.9822313992       -2.4732155502       -2.5047554231
 H         -5.5111513291       -1.6869053657       -2.1770606422
  57
        -81.17516702
 C         -4.5480232342       -1.5102387028       -2.0717574173
 C         -4.1746069473       -1.5567047359       -0.5957876026
 C         -4.9465767487       -2.6429333633        0.1407283374
 N         -4.3975828424       -0.2460412888        0.0859475905
 C         -5.7568679806        0.3342884993       -0.0159979620
 C         -5.5348873097        1.7978590547        0.3313064838
 C         -4.2413458798        2.1092231806       -0.4204133816
 C         -3.4162918138        0.8197314724       -0.2570618203
 C         -2.4591068372        0.8989590387        0.9484995386
 O         -2.7629336032        0.2579461318        1.9610278367
 N         -1.3789027571        1.6600624963        0.8623925683
 C         -0.4750738536        1.7308146186        2.0046766306
 C          0.9735724693        1.8921595836        1.5429834487
 C          1.1880534337        1.0592736456        0.2750571979
 C          0.3350652835        1.6284798520       -0.8748934586
 C         -0.9012764806        2.3505392386       -0.3168971018
 N          2.5844802160        1.0032284863       -0.0896149035
 C          3.4059482129        2.0612762177       -0.3489403504
 N          4.6253850887        1.7313929070       -0.6474027473
 C          4.6476184861        0.3571035831       -0.5891075657
 C          3.3602441906       -0.1124560458       -0.2350458629
 C          3.1559928925       -1.4892684752       -0.1182320592
 C          2.1163489420       -2.4032795724        0.1937545195
 C          2.6553645345       -3.6548198536        0.1143724242
 N          3.9711163560       -3.5780298384       -0.2311379750
 C          4.3139148717       -2.2719285161       -0.3807460091
 N          5.5344218797       -1.8409395034       -0.7165100321
 C          5.6969201798       -0.5390877096       -0.8191651415
 H         -2.8693700542        0.5488420336       -1.1591415167
 H          4.6010745809       -4.3522791511       -0.3556583731
 H         -3.1039751350       -1.7616342022       -0.4963860738
 H         -4.1841485370       -0.4021471175        1.1042264060
 H         -6.1087815371        0.2407325418       -1.0419006673
 H         -6.4422795278       -0.1719774183        0.6584621167
 H         -5.3925351608        1.9213087263        1.4051953464
 H         -6.3612273387        2.4279149794        0.0160738399
 H         -4.4531223613        2.2901681185       -1.4733677828
 H         -3.7352321417        2.9793995628       -0.0112580418
 H         -0.7638037012        2.5678977872        2.6469980057
 H         -0.5989584852        0.8091076113        2.5786522420
 H          1.2066920553        2.9372405035        1.3419121495
 H          1.6421624942        1.5505852682        2.3328352268
 H          0.8900328601        0.0291516192        0.4871710519
 H          0.9270711937        2.3349599877       -1.4561283763
 H          0.0419595424        0.8170555637       -1.5405963627
 H         -1.6732355597        2.4161579940       -1.0775220688
 H         -0.6373020058        3.3667225065       -0.0170305140
 H          3.0711583830        3.0785276237       -0.3079283864
 H          1.1019163576       -2.1783967266        0.4527397396
 H          2.1873952817       -4.6042387350        0.2827799933
 H          6.6825860166       -0.1917972612       -1.0912864825
 H         -6.0189886688       -2.4991776469        0.0470620181
 H         -4.7022367366       -3.6111738044       -0.2858537027
 H         -4.6800023620       -2.6654458345        1.1947572674
 H         -5.6240533638       -1.5561312311       -2.2107860714
 H         -4.1633144541       -0.6225043660       -2.5651303054
 H         -4.1196784293       -2.3762620566       -2.5679570923
  57
        -81.17514425
 C         -4.7422685074       -1.3216258146       -2.1384118181
 C         -4.3454070953       -1.4694591443       -0.6751706214
 C         -5.1578920261       -2.5563201070        0.0154875244
 N         -4.4907435253       -0.1900945842        0.0826026298
 C         -5.8238895551        0.4556927015        0.0456645055
 C         -5.5267350739        1.8892896364        0.4560020908
 C         -4.2377707939        2.1777955630       -0.3122216105
 C         -3.4682565900        0.8474988069       -0.2249635730
 C         -2.4917740646        0.8261900952        0.9676502795
 O         -2.8071231430        0.1459163414        1.9508819776
 N         -1.3825459479        1.5465279774        0.9052914773
 C         -0.4720828208        1.5276616158        2.0448562502
 C          0.9735088682        1.7284072356        1.5932763549
 C          1.1993247700        0.9691275273        0.2816543354
 C          0.3291196786        1.5774886391       -0.8352238749
 C         -0.8957292425        2.2873812966       -0.2390212767
 N          2.5961923856        0.9657072731       -0.0868033484
 C          3.3826749838        2.0558765709       -0.3205461065
 N          4.6133651619        1.7735135994       -0.6214676508
 C          4.6818125508        0.3998104239       -0.5905157062
 C          3.4099650818       -0.1199666501       -0.2504195124
 C          3.2527343822       -1.5049020839       -0.1596643052
 C          2.2442068713       -2.4594708349        0.1325602051
 C          2.8263437215       -3.6900707313        0.0330064565
 N          4.1396762469       -3.5620294009       -0.3063671332
 C          4.4376788085       -2.2425162159       -0.4320211768
 N          5.6436736607       -1.7640553785       -0.7557284365
 C          5.7616738311       -0.4556764546       -0.8336567938
 H         -2.9464045232        0.5972438008       -1.1476038909
 H          4.7961073724       -4.3119022133       -0.4424500985
 H         -3.2847328080       -1.7317478178       -0.6092139350
 H         -4.2624395109       -0.4117238848        1.0856938212
 H         -6.2054320912        0.4282866067       -0.9734671036
 H         -6.5148942154       -0.0516127400        0.7136231655
 H         -5.3543640758        1.9543248185        1.5305914006
 H         -6.3301208397        2.5703337442        0.1915593798
 H         -4.4645051536        2.4143543074       -1.3509462262
 H         -3.6846399936        3.0061078926        0.1219413776
 H         -0.7598424642        2.3093142588        2.7542144843
 H         -0.5909956792        0.5629716700        2.5448929270
 H          1.1974661161        2.7852014677        1.4516945577
 H          1.6444440160        1.3495490538        2.3640015840
 H          0.9261315826       -0.0773480754        0.4396855240
 H          0.9132487363        2.2993684440       -1.4052958692
 H          0.0205570799        0.7882409640       -1.5202390741
 H         -1.6669028613        2.3983805808       -0.9951787372
 H         -0.6179894799        3.2849258562        0.1078001559
 H          3.0142812505        3.0604482757       -0.2594565772
 H          1.2214457460       -2.2746623495        0.3906800300
 H          2.3907262783       -4.6578172657        0.1827985000
 H          6.7359383782       -0.0702819784       -1.0951325782
 H         -4.8761215208       -2.6500346259        1.0615798439
 H         -6.2232654398       -2.3560027198       -0.0501018018
 H         -4.9685349538       -3.5101332969       -0.4677333581
 H         -4.3210689052       -0.4283749713       -2.5902001534
 H         -4.3682938220       -2.1791366613       -2.6901908124
 H         -5.8214914209       -1.3051387631       -2.2578775415
  57
        -81.17513428
 C         -5.5786721168        1.2799455190       -1.5258878032
 C         -6.1244801205        1.0518205568       -0.1209611349
 C         -6.3415340072        2.3645394010        0.6180774253
 N         -5.2256654756        0.1152082854        0.6254334572
 C         -5.7399540441       -0.3113258678        1.9565722565
 C         -4.8506239832        0.4046432861        2.9635666966
 C         -3.4843108854        0.3493194531        2.2858825660
 C         -3.8167383433        0.5613521431        0.7998685984
 C         -2.9743025317       -0.3296413936       -0.1278098867
 O         -3.5495127784       -1.2654957832       -0.6971684590
 N         -1.6812707153       -0.0796868600       -0.2683292064
 C         -0.8867472875       -0.9819846626       -1.0928683641
 C          0.5368308981       -1.0601819356       -0.5648127101
 C          1.2299033360        0.3046901553       -0.7177553949
 C          0.2183163381        1.4358550028       -0.4817297039
 C         -0.9551949891        0.9929066370        0.3898654048
 N          2.3690916781        0.3791571481        0.1730285802
 C          2.4221608382        0.8261447215        1.4599646982
 N          3.5861154357        0.7027353186        2.0230317234
 C          4.3857300153        0.1205548433        1.0675814134
 C          3.6209272194       -0.0954866210       -0.1028898921
 C          4.2329112873       -0.6921780025       -1.2064053601
 C          3.9074070665       -1.1091300152       -2.5227157131
 C          5.0455664903       -1.6390412287       -3.0584629705
 N          6.0634096907       -1.5794724109       -2.1537500635
 C          5.6046401139       -1.0091710448       -1.0088938949
 N          6.3408317965       -0.8043435103        0.0885017079
 C          5.7347820617       -0.2467330627        1.1153445131
 H         -3.7305489184        1.6096091002        0.5182127354
 H          7.0053183259       -1.9032246626       -2.2948611659
 H         -7.0816400901        0.5283926867       -0.2027689418
 H         -5.1086608717       -0.7255895065        0.0084746789
 H         -6.7938724002       -0.0655956212        2.0562307378
 H         -5.6181312977       -1.3902860262        2.0507799166
 H         -4.8527609806       -0.0901742584        3.9305709147
 H         -5.1644197625        1.4373573695        3.1033245934
 H         -2.8075162590        1.1079712130        2.6669413203
 H         -3.0307540528       -0.6310245764        2.4344515001
 H         -1.3654339023       -1.9634743575       -1.0726699377
 H         -0.8870809730       -0.6305009491       -2.1293692221
 H          0.5264900067       -1.3482220327        0.4878397696
 H          1.0897203017       -1.8250237819       -1.1086270040
 H          1.6380527742        0.3970747545       -1.7284771228
 H          0.7148293674        2.2881759876       -0.0196282319
 H         -0.1684007881        1.7659617020       -1.4455965480
 H         -1.6137936045        1.8459600267        0.5454012657
 H         -0.5953346513        0.6475313808        1.3635689877
 H          1.5821971270        1.2565952919        1.9658205792
 H          2.9597106987       -1.0345694712       -3.0162728335
 H          5.2009994933       -2.0590919617       -4.0323216575
 H          6.3306597820       -0.0854258874        2.0014082886
 H         -7.0117891811        2.9839306113        0.0289519479
 H         -6.8052774849        2.2114364225        1.5871970554
 H         -5.4172398697        2.9185862431        0.7507019565
 H         -4.7106047114        1.9330301227       -1.5239624189
 H         -5.3060760054        0.3390965464       -1.9987762804
 H         -6.3434408501        1.7507292683       -2.1362355594
  57
        -81.17507170
 C         -4.8583936097       -1.2040875493       -2.1690397910
 C         -4.4515344158       -1.4073424155       -0.7152230355
 C         -5.2877701167       -2.4913483537       -0.0488491679
 N         -4.5528877626       -0.1479504099        0.0821075110
 C         -5.8669467672        0.5367377061        0.0779954890
 C         -5.5245305624        1.9479128701        0.5287923386
 C         -4.2347901786        2.2226957156       -0.2431481987
 C         -3.5035843264        0.8687202183       -0.2043745537
 C         -2.5170079544        0.7825105059        0.9768619661
 O         -2.8420632311        0.0804428643        1.9415539123
 N         -1.3881585384        1.4725605269        0.9270458234
 C         -0.4736292275        1.3919732833        2.0609861448
 C          0.9705062498        1.6150126961        1.6181164862
 C          1.2038648162        0.9039748555        0.2808198878
 C          0.3215396900        1.5340502722       -0.8146977618
 C         -0.8923855709        2.2413302371       -0.1946582222
 N          2.6006125317        0.9370824118       -0.0875448515
 C          3.3624140565        2.0487897013       -0.3008692396
 N          4.6013699814        1.8000241559       -0.5973692019
 C          4.7026276003        0.4281679566       -0.5839783647
 C          3.4414158269       -0.1264688107       -0.2594404719
 C          3.3174140616       -1.5158991074       -0.1883298222
 C          2.3302648157       -2.4982897642        0.0839375078
 C          2.9424917244       -3.7130603693       -0.0283484239
 N          4.2546751657       -3.5489064133       -0.3565132720
 C          4.5216923495       -2.2209758944       -0.4621787132
 N          5.7180891844       -1.7092691390       -0.7704643440
 C          5.8047114449       -0.3974482830       -0.8302343165
 H         -2.9980575933        0.6319213441       -1.1396101365
 H          4.9297369246       -4.2810875857       -0.4979624099
 H         -3.3981546289       -1.7012731466       -0.6684132710
 H         -4.3218157257       -0.4065158515        1.0757870830
 H         -6.2583267681        0.5516359645       -0.9376615649
 H         -6.5663820801        0.0293103807        0.7370147033
 H         -5.3405277216        1.9748562823        1.6030873063
 H         -6.3102082709        2.6595595175        0.2933039466
 H         -4.4640008226        2.4977291490       -1.2717931727
 H         -3.6537533519        3.0208782957        0.2105427133
 H         -0.7587282435        2.1344000944        2.8124085776
 H         -0.5918640481        0.4021675151        2.5098619847
 H          1.1903512543        2.6771469246        1.5152504537
 H          1.6418156850        1.2118178450        2.3761759705
 H          0.9487237340       -0.1515933540        0.4042626803
 H          0.9011971263        2.2614588364       -1.3822310380
 H         -0.0008693040        0.7568964912       -1.5070653306
 H         -1.6627454098        2.3839116986       -0.9463589195
 H         -0.6014146867        3.2248921954        0.1802783809
 H          2.9699752827        3.0434915515       -0.2285969381
 H          1.3014889398       -2.3416879454        0.3367523179
 H          2.5290267725       -4.6929023940        0.1048953996
 H          6.7711443405        0.0153847955       -1.0786779310
 H         -6.3475441785       -2.2587233067       -0.0959439145
 H         -5.1312467412       -3.4347892139       -0.5631757445
 H         -4.9976061114       -2.6253734889        0.9905354084
 H         -4.4164304159       -0.3097238115       -2.5982357770
 H         -4.5143642395       -2.0546304373       -2.7502985616
 H         -5.9378356652       -1.1536671570       -2.2764252367
  57
        -81.17500084
 C         -2.7552107578       -2.3051466972       -0.4352315998
 C         -4.1029953904       -1.6681437162       -0.7508828804
 C         -4.2404834254       -1.3811547396       -2.2408414416
 N         -4.2872772129       -0.4470947454        0.0912993224
 C         -5.6787104964        0.0649776064        0.1506068156
 C         -5.5103634778        1.5191140352        0.5625701619
 C         -4.2892249222        1.9378393470       -0.2537915627
 C         -3.3803610954        0.7014925653       -0.1785843230
 C         -2.4225294421        0.7619972072        1.0267559199
 O         -2.6630445925        0.0141368717        1.9808144017
 N         -1.4096119572        1.6171119461        1.0038185009
 C         -0.4977910313        1.6794329226        2.1322188794
 C          0.8495716501        1.0509209409        1.7495522526
 C          1.1048254204        1.2512389587        0.2442103085
 C          0.4979109862        2.5850249321       -0.1905336025
 C         -1.0321500768        2.4705586810       -0.1100726651
 N          2.5139431075        1.1508840935       -0.0522238277
 C          3.4557990619        2.1355872284       -0.0976930827
 N          4.6586762097        1.7124533573       -0.3456724700
 C          4.5413292089        0.3467223210       -0.4671289701
 C          3.1890849852       -0.0169469310       -0.2729743177
 C          2.8336371837       -1.3646246295       -0.3422626601
 C          1.6834834000       -2.1838259823       -0.2071877797
 C          2.0922625931       -3.4702916773       -0.4104587877
 N          3.4304225514       -3.5029128556       -0.6666072847
 C          3.9197875681       -2.2359754799       -0.6279484914
 N          5.2012850207       -1.9062947867       -0.8226774945
 C          5.5072246287       -0.6288036374       -0.7389556968
 H         -2.8277529982        0.5346333767       -1.1007146761
 H          3.9832701475       -4.3241234098       -0.8451404496
 H         -4.8998616499       -2.3521376193       -0.4447954617
 H         -3.9942358146       -0.7037022198        1.0705424124
 H         -6.1272857176        0.0029344986       -0.8400508426
 H         -6.2689624104       -0.5220882546        0.8503882794
 H         -5.3015077454        1.5950374835        1.6299285565
 H         -6.3886768282        2.1163777449        0.3369877400
 H         -4.5735312567        2.1312712250       -1.2869502569
 H         -3.8127266793        2.8269421094        0.1478097683
 H         -0.3711239291        2.7275267540        2.4083377811
 H         -0.9465460813        1.1475313424        2.9709926986
 H          1.6470811448        1.5271816849        2.3204537645
 H          0.8621228282       -0.0131487953        1.9857072185
 H          0.6247201841        0.4445832849       -0.3212086511
 H          0.8616700131        3.3796966206        0.4595900360
 H          0.7912084271        2.8245247498       -1.2119448467
 H         -1.4119298199        2.0529157907       -1.0405239904
 H         -1.4633250869        3.4669430618        0.0236823560
 H          3.2221419953        3.1708128549        0.0471515887
 H          0.6862094763       -1.8736744214        0.0294287910
 H          1.5168807957       -4.3741338101       -0.3895358579
 H          6.5435547588       -0.3664563081       -0.8923209389
 H         -4.2824929286       -2.3280071809       -2.7711699907
 H         -5.1497300142       -0.8366174369       -2.4741373683
 H         -3.3899244255       -0.8300183528       -2.6313550654
 H         -1.9321011294       -1.6977453901       -0.8031463558
 H         -2.6281295332       -2.4513747038        0.6350240922
 H         -2.6905161584       -3.2758026420       -0.9171728925
  57
        -81.17495816
 C         -5.7042715468        0.1077420694       -2.2738772947
 C         -5.2940086480       -0.6445948105       -1.0145757543
 C         -6.3559125811       -1.6521807146       -0.5957770028
 N         -5.0110254283        0.2756327498        0.1277948262
 C         -6.0877067210        1.2207716405        0.5048042081
 C         -5.3517478612        2.2843834120        1.3047230394
 C         -4.0774689711        2.4733927213        0.4828647783
 C         -3.7413749407        1.0453552869        0.0193163139
 C         -2.7570022225        0.3411608794        0.9726902374
 O         -3.2079740020       -0.5441067396        1.7099719171
 N         -1.4848805054        0.7063979087        0.9873192679
 C         -0.6001898982       -0.0056483891        1.9065689053
 C          0.8566509940        0.3689167243        1.6840705269
 C          1.2252485859        0.2109182346        0.2029695451
 C          0.2476885621        0.9986135130       -0.6951007107
 C         -0.8520454210        1.6800823942        0.1228798183
 N          2.5945262467        0.6228160777       -0.0132386673
 C          3.0885155159        1.8918830044        0.0652402430
 N          4.3661067371        1.9833181975       -0.1465239478
 C          4.7820943042        0.6926795277       -0.3777441801
 C          3.6678967724       -0.1760750179       -0.2891180281
 C          3.8657715274       -1.5446333316       -0.4849707231
 C          3.1201482474       -2.7518859403       -0.4906742493
 C          4.0016974199       -3.7570809092       -0.7653006477
 N          5.2555345712       -3.2500327218       -0.9318119264
 C          5.2130268181       -1.9020251195       -0.7664890480
 N          6.2724724142       -1.0913363402       -0.8585989643
 C          6.0565309244        0.1923816941       -0.6647478843
 H         -3.3689223369        1.0083000103       -1.0037812923
 H          6.0874391871       -3.7751735883       -1.1417274496
 H         -4.3577251539       -1.1812681101       -1.1979878859
 H         -4.8063215228       -0.3392636772        0.9575116241
 H         -6.5121006145        1.6565710957       -0.3979867555
 H         -6.8637601206        0.7126135287        1.0709722372
 H         -5.1124996839        1.9177373246        2.3032423575
 H         -5.9258130712        3.2012066376        1.3998969531
 H         -4.2761290284        3.1117415486       -0.3769320925
 H         -3.2771282365        2.9172207505        1.0683448794
 H         -0.8988243396        0.2188266082        2.9348600968
 H         -0.7456833309       -1.0801258057        1.7546859082
 H          1.0499693027        1.3917002865        2.0071948977
 H          1.4840366279       -0.2871445399        2.2877442382
 H          1.1880133083       -0.8499673816       -0.0541750217
 H          0.7902285149        1.7563923804       -1.2594370831
 H         -0.2079783797        0.3171860297       -1.4130293003
 H         -1.5786356345        2.1274614189       -0.5490633372
 H         -0.4287432123        2.4758715362        0.7404330343
 H          2.4720310471        2.7420648017        0.2795461008
 H          2.0715495273       -2.8762589499       -0.3117256976
 H          3.8187914946       -4.8095381582       -0.8536115749
 H          6.9135949652        0.8452729002       -0.7374442046
 H         -6.0594307008       -2.1791388714        0.3080719475
 H         -7.3150237791       -1.1705849504       -0.4295718808
 H         -6.4851864267       -2.3882288594       -1.3835904501
 H         -5.0597870159        0.9591098730       -2.4720901446
 H         -5.6322991154       -0.5661875684       -3.1225672205
 H         -6.7341010482        0.4474229358       -2.2161812987
  57
        -81.17495083
 C         -5.4545711774        0.8652924164       -1.4118811289
 C         -5.7528824126        0.0697273788       -0.1466602784
 C         -6.4222132196        0.9329123833        0.9135699455
 N         -4.4994244074       -0.5816243488        0.3516692548
 C         -4.7019890816       -1.5199559719        1.4921495312
 C         -4.0630134670       -0.8230821073        2.6854627036
 C         -2.8426895023       -0.1644357861        2.0498979270
 C         -3.3840264814        0.3400174963        0.7026215046
 C         -2.3626478040        0.2205795676       -0.4427615149
 O         -2.5267160569       -0.6950840959       -1.2583252951
 N         -1.3615983853        1.0838121777       -0.5272612804
 C         -0.4217178116        0.9196705988       -1.6331823486
 C          0.8635738530        1.7033052030       -1.3958280751
 C          1.3635275559        1.5105934494        0.0418740610
 C          0.2933527877        1.9705942504        1.0481883795
 C         -1.0708038909        2.1745887820        0.3765217737
 N          1.7477416946        0.1267676227        0.2433541625
 C          0.9776071633       -0.9256182020        0.6363606653
 N          1.5963880464       -2.0671716331        0.6643006033
 C          2.8768189657       -1.7869974267        0.2472491406
 C          2.9776143858       -0.4032919626       -0.0315697323
 C          4.1942541333        0.1033564272       -0.4916661851
 C          4.7577332574        1.3371771694       -0.9069782432
 C          6.0546272685        1.0805630198       -1.2465470349
 N          6.3349943818       -0.2417782629       -1.0694378088
 C          5.2216313685       -0.8722242571       -0.6121208568
 N          5.1427367695       -2.1794375616       -0.3423513388
 C          3.9807070366       -2.6299912961        0.0809992993
 H         -3.7675434235        1.3558151346        0.7827683459
 H          7.2160474145       -0.6928519225       -1.2489481264
 H         -6.4219736846       -0.7558652978       -0.4064508814
 H         -4.0988232280       -1.1031624857       -0.4647061685
 H         -5.7588082903       -1.7330686718        1.6285527663
 H         -4.1786565655       -2.4520175334        1.2794209254
 H         -3.7927497277       -1.5248534809        3.4693094971
 H         -4.7267072523       -0.0699292090        3.1064835504
 H         -2.4385840881        0.6364206420        2.6625080376
 H         -2.0643521781       -0.9121523894        1.8904535654
 H         -0.2094070969       -0.1493420266       -1.7369194627
 H         -0.8985981916        1.2448519824       -2.5632704609
 H          1.6202270396        1.3534000703       -2.0986492776
 H          0.7111950869        2.7665823399       -1.5743865043
 H          2.2793425690        2.0907964128        0.1817167985
 H          0.2167464839        1.2399593728        1.8526277855
 H          0.5964753212        2.9164650986        1.4942197069
 H         -1.0597660820        3.1001046790       -0.2046868409
 H         -1.8391205877        2.2598451297        1.1385972807
 H         -0.0537078769       -0.8225749903        0.9032953560
 H          4.2746484344        2.2917773500       -0.9582788672
 H          6.8039998428        1.7571429605       -1.6064850989
 H          3.9196092879       -3.6870623428        0.2929752141
 H         -6.6782827730        0.3612967930        1.7997137632
 H         -5.8071448212        1.7797155124        1.2025730328
 H         -7.3460027548        1.3279050234        0.5006670151
 H         -4.9068330824        1.7785871233       -1.1971116259
 H         -4.8808791132        0.2736692256       -2.1218566074
 H         -6.3891291940        1.1447009292       -1.8889008727
  57
        -81.17494576
 C         -5.4740129966        0.9361209443       -1.3930646738
 C         -5.7664995520        0.0912260565       -0.1588392226
 C         -6.4290604131        0.9120629077        0.9386046670
 N         -4.5110624793       -0.5805701460        0.3061224718
 C         -4.7081915506       -1.5652694252        1.4077096290
 C         -4.0666834872       -0.9164809057        2.6264838572
 C         -2.8490528794       -0.2303809989        2.0151958418
 C         -3.3932064500        0.3251353892        0.6891691765
 C         -2.3746792462        0.2473190257       -0.4624542389
 O         -2.5446877908       -0.6337397553       -1.3141625379
 N         -1.3695046916        1.1083211896       -0.5135555400
 C         -0.4286146733        0.9823743189       -1.6235872249
 C          0.8626561633        1.7447929590       -1.3514540791
 C          1.3593206886        1.4920834297        0.0781663907
 C          0.2879183013        1.9107465136        1.1016292296
 C         -1.0710912728        2.1582733559        0.4349040949
 N          1.7436295729        0.1015111252        0.2249812872
 C          0.9667198835       -0.9686543417        0.5513528270
 N          1.5882274851       -2.1090406291        0.5463592822
 C          2.8786739553       -1.8080821763        0.1771264191
 C          2.9823643248       -0.4133260085       -0.0388349294
 C          4.2098384904        0.1156727675       -0.4415888687
 C          4.7808165562        1.3676727134       -0.7865705215
 C          6.0884135630        1.1292760062       -1.0971718497
 N          6.3686229792       -0.1985254742       -0.9678626667
 C          5.2443057875       -0.8510780481       -0.5726662775
 N          5.1622923314       -2.1689880237       -0.3626328599
 C          3.9900454224       -2.6403378784        0.0062823941
 H         -3.7744355299        1.3380064964        0.8081407014
 H          7.2568786402       -0.6386891228       -1.1387278379
 H         -6.4379239647       -0.7227322144       -0.4476597690
 H         -4.1149855659       -1.0682057018       -0.5330947758
 H         -5.7641691904       -1.7860627664        1.5386028443
 H         -4.1836224530       -2.4866813289        1.1550410688
 H         -3.7930842434       -1.6491003718        3.3803986732
 H         -4.7302826115       -0.1822566840        3.0798019571
 H         -2.4463629466        0.5469934118        2.6582292125
 H         -2.0687078726       -0.9690082313        1.8261476190
 H         -0.2250213343       -0.0830822208       -1.7716094589
 H         -0.9005440761        1.3502529276       -2.5402048184
 H          1.6182537148        1.4174618080       -2.0662116918
 H          0.7192875159        2.8155830639       -1.4877577122
 H          2.2749236464        2.0657012074        0.2430909944
 H          0.2009904866        1.1411958696        1.8678803830
 H          0.5962915546        2.8304933530        1.5959960538
 H         -1.0477998183        3.1066459254       -0.1077004242
 H         -1.8414432310        2.2206646560        1.1971210821
 H         -0.0718156810       -0.8792529103        0.7943919970
 H          4.2959820500        2.3224291717       -0.8125127952
 H          6.8457185220        1.8226331460       -1.4048197802
 H          3.9272774727       -3.7057543634        0.1704626991
 H         -5.8106096686        1.7449373013        1.2591303727
 H         -7.3537597918        1.3256172492        0.5464195794
 H         -6.6824829467        0.3052773868        1.8018169004
 H         -4.9049743267        0.3724178346       -2.1290421745
 H         -6.4107601128        1.2352500913       -1.8535447705
 H         -4.9238752524        1.8395757929       -1.1453491861
  57
        -81.17490349
 C         -6.3619876680        2.3224608838        0.7776974784
 C         -5.9807711125        1.2096086943       -0.1876324775
 C         -7.2037301628        0.5710664306       -0.8323519863
 N         -5.1580775241        0.1451915217        0.4681616611
 C         -5.7228543417       -0.4542397908        1.7078990572
 C         -4.8416169247        0.0745336311        2.8310383861
 C         -3.4590639068        0.0861708811        2.1838761320
 C         -3.7506860725        0.5432709415        0.7465270225
 C         -2.8950026375       -0.1812635759       -0.3061714214
 O         -3.4678534612       -0.9894070361       -1.0475916370
 N         -1.5963263040        0.0702605625       -0.3708165062
 C         -0.7894077408       -0.6845280230       -1.3217844597
 C          0.6136203791       -0.8884126397       -0.7724356529
 C          1.3347061905        0.4655905075       -0.6547426509
 C          0.3326154414        1.5599924342       -0.2597714776
 C         -0.8767063003        0.9982446284        0.4850932329
 N          2.4374409235        0.3540530100        0.2772452627
 C          2.4494467429        0.5765263984        1.6224018637
 N          3.5852980498        0.3205738227        2.1982081212
 C          4.4073837579       -0.1200857268        1.1877407481
 C          3.6862288045       -0.1098378347       -0.0293525225
 C          4.3266494669       -0.5332686358       -1.1950515580
 C          4.0447601051       -0.7103928434       -2.5740036768
 C          5.1885014626       -1.1828599169       -3.1500719717
 N          6.1687129497       -1.3131764415       -2.2117517662
 C          5.6790857421       -0.9278280571       -1.0041952895
 N          6.3739635439       -0.9373279586        0.1383507158
 C          5.7420127896       -0.5382032985        1.2217715779
 H         -3.6548070339        1.6246377139        0.6433320291
 H          7.1051589855       -1.6440161736       -2.3713792029
 H         -5.3501764226        1.6197546664       -0.9830296708
 H         -5.0365531156       -0.6021770333       -0.2575645859
 H         -6.7686600932       -0.1876026127        1.8233333274
 H         -5.6404423134       -1.5387263358        1.6422407639
 H         -4.8806159639       -0.5612740857        3.7109533933
 H         -5.1374088002        1.0814627903        3.1197449977
 H         -2.7724941123        0.7530724063        2.6961681667
 H         -3.0363324299       -0.9188175633        2.1818575459
 H         -1.2845847258       -1.6424915363       -1.4947096229
 H         -0.7485264612       -0.1512592228       -2.2766009693
 H          0.5611915347       -1.3599866935        0.2104245762
 H          1.1721651367       -1.5561203255       -1.4270497856
 H          1.7853159576        0.7259318070       -1.6170352261
 H          0.8250794987        2.3103150916        0.3573892248
 H         -0.0156182833        2.0584291417       -1.1641070170
 H         -1.5277797213        1.8253288703        0.7643472832
 H         -0.5553175444        0.4825902327        1.3948210069
 H          1.6017549107        0.9448105059        2.1631058927
 H          3.1213927437       -0.5190954250       -3.0820626257
 H          5.3726945386       -1.4377525786       -4.1747981485
 H          6.3047732620       -0.5493928793        2.1433813231
 H         -6.9104135826       -0.2113100847       -1.5284795703
 H         -7.8778160674        0.1485812727       -0.0931011989
 H         -7.7526623591        1.3241864596       -1.3896500324
 H         -7.0711369254        1.9823000496        1.5257527277
 H         -5.4947607938        2.7428378125        1.2777555488
 H         -6.8371575576        3.1216068410        0.2161586187
  57
        -81.17481429
 C         -6.8072622357        0.9129926109        1.5614167521
 C         -5.5707009353        0.0937821161        1.2093207082
 C         -4.4360854105        0.4597700385        2.1590879006
 N         -5.1944402609        0.3694501550       -0.2109775572
 C         -6.2017719756       -0.1139819085       -1.2043766710
 C         -5.4496426714       -1.0795981527       -2.1156220050
 C         -4.0314166415       -0.5231747205       -2.0976159113
 C         -3.8563467159       -0.1377924255       -0.6233508536
 C         -2.8777215275        1.0337675031       -0.4614251200
 O         -3.3568642672        2.1718779466       -0.4353859406
 N         -1.5794147514        0.7766256326       -0.3815993598
 C         -0.6481067784        1.8806654551       -0.2055213251
 C          0.3838048180        1.5174943104        0.8555734663
 C          1.2246297685        0.3011417527        0.4339870507
 C          0.4874411334       -0.5038089062       -0.6491015229
 C         -1.0070894156       -0.5620837776       -0.3578809911
 N          2.5362060404        0.6776713533       -0.0491702998
 C          2.8857875665        1.7672902583       -0.7904807699
 N          4.1400634962        1.8070441779       -1.1257695195
 C          4.6893943724        0.6648314436       -0.5911421348
 C          3.6790440129       -0.0603284315        0.0829657928
 C          4.0120917286       -1.2713207866        0.6925319399
 C          3.3909719141       -2.3136739908        1.4276454367
 C          4.3651283538       -3.2260489705        1.7136727758
 N          5.5587285178       -2.8166129483        1.1985149628
 C          5.3826764254       -1.6274394796        0.5653170639
 N          6.3495281698       -0.9468727085       -0.0597282180
 C          6.0034174985        0.1862115751       -0.6330376108
 H         -3.5920256726       -1.0055899105       -0.0212718545
 H          6.4357331855       -3.3045458349        1.2669090570
 H         -5.7878383962       -0.9761367331        1.2811103049
 H         -5.0752634036        1.4034285084       -0.2935197355
 H         -7.0259258992       -0.6066022964       -0.6950608686
 H         -6.5873592767        0.7332221093       -1.7683343633
 H         -5.8738302936       -1.1083601545       -3.1150516214
 H         -5.4620914412       -2.0890044547       -1.7064417874
 H         -3.2955336916       -1.2484791165       -2.4317074614
 H         -3.9581527302        0.3641552170       -2.7275854631
 H         -0.1673487468        2.1125339445       -1.1598694318
 H         -1.2257249450        2.7547609859        0.1016029748
 H          1.0297928137        2.3730984740        1.0471642818
 H         -0.1371900505        1.2882761655        1.7853271813
 H          1.4032980528       -0.3325648936        1.3071508412
 H          0.6583108632       -0.0406514427       -1.6218235171
 H          0.8885543840       -1.5160931676       -0.6924530072
 H         -1.1612392248       -1.0133727158        0.6285193747
 H         -1.4848975814       -1.1833647815       -1.1143959382
 H          2.1897483748        2.5336978870       -1.0662489557
 H          2.3610774874       -2.3896635377        1.7107514611
 H          4.2888918522       -4.1486736375        2.2538403537
 H          6.7847607416        0.7329037319       -1.1398623507
 H         -4.1309874239        1.4931420211        2.0117698459
 H         -4.7869693464        0.3587125228        3.1817938293
 H         -3.5693783233       -0.1836929078        2.0464239319
 H         -7.6474382065        0.7081474538        0.9059615157
 H         -7.1173888938        0.6814769879        2.5759058473
 H         -6.5806543191        1.9756482010        1.5154557732
  57
        -81.17472308
 C         -6.4565468719        0.9272349672        0.8016542188
 C         -5.6354200391        0.4478036212       -0.3866516208
 C         -6.4813121568       -0.3288401327       -1.3866495856
 N         -4.4703025795       -0.3948145061        0.0297331451
 C         -4.7779879392       -1.5515586334        0.9160482627
 C         -4.1599526888       -1.1860615767        2.2588230106
 C         -2.8844769475       -0.4616797724        1.8379564246
 C         -3.3503894689        0.3758337694        0.6378973453
 C         -2.2927393412        0.5191288119       -0.4718863452
 O         -2.4600179964       -0.1409877187       -1.5049657564
 N         -1.2623518861        1.3333274710       -0.3001271647
 C         -0.2836154965        1.4220682009       -1.3807288773
 C          1.0221567554        2.0459528385       -0.9024116820
 C          1.4499771517        1.4585655528        0.4489902522
 C          0.3537626961        1.6857429114        1.5060967293
 C         -0.9675879076        2.1328209030        0.8683277886
 N          1.7765692726        0.0544431036        0.2930606514
 C          0.9472007663       -1.0249562789        0.3426879531
 N          1.5273040550       -2.1631404461        0.1085897295
 C          2.8440918172       -1.8471037144       -0.1331561533
 C          3.0076641735       -0.4452620812       -0.0290768629
 C          4.2715882040        0.1032622143       -0.2534457404
 C          4.9030505925        1.3731822846       -0.2865080102
 C          6.2156921258        1.1499156188       -0.5868686053
 N          6.4422042481       -0.1850221097       -0.7444934298
 C          5.2768487971       -0.8568356703       -0.5527896815
 N          5.1380143792       -2.1835105311       -0.6444320833
 C          3.9326357155       -2.6707644259       -0.4392796307
 H         -3.7165480801        1.3542031834        0.9506669349
 H          7.3221364977       -0.6163538808       -0.9712227684
 H         -5.2034193519        1.3121301003       -0.9013431618
 H         -4.0424673757       -0.7403752035       -0.8621600576
 H         -5.8487778321       -1.7201471951        0.9710345183
 H         -4.3010608110       -2.4435093700        0.5109320367
 H         -3.9556580508       -2.0640151472        2.8649707865
 H         -4.8110384241       -0.5193924160        2.8217509109
 H         -2.4715316454        0.1468537782        2.6372338326
 H         -2.1339016903       -1.1894169297        1.5261941403
 H         -0.1123536471        0.4100889314       -1.7615287212
 H         -0.7055688410        2.0083920503       -2.2031182455
 H          1.7942654485        1.8532213885       -1.6478505828
 H          0.9234650561        3.1254272271       -0.7987856971
 H          2.3783510428        1.9394279117        0.7673458154
 H          0.2099947062        0.7698049776        2.0783374973
 H          0.6736330465        2.4593085624        2.2022617995
 H         -0.8892496553        3.1757973496        0.5516952995
 H         -1.7669601262        2.0585235586        1.5989298398
 H         -0.0979328227       -0.9439176269        0.5588935185
 H          4.4540122595        2.3312427784       -0.1197874059
 H          7.0115302729        1.8588473287       -0.7004162967
 H          3.8244061841       -3.7421335429       -0.5193743097
 H         -6.9395391522       -1.2040596449       -0.9354905854
 H         -7.2774797946        0.3089157877       -1.7587258618
 H         -5.8818634594       -0.6451499353       -2.2372653471
 H         -5.8445129954        1.4262242317        1.5467261032
 H         -7.1924400968        1.6433474874        0.4477278511
 H         -6.9951967368        0.1127207961        1.2755378061
  57
        -81.17471899
 C         -6.4421139429        0.9496518373        0.7548153196
 C         -5.6101821677        0.3913550262       -0.3907479944
 C         -6.4457700391       -0.4578153304       -1.3391918183
 N         -4.4450911209       -0.4150117994        0.0922086613
 C         -4.7551584812       -1.5090016982        1.0542250263
 C         -4.1425364007       -1.0521243093        2.3713104845
 C         -2.8670120835       -0.3557096067        1.9059084854
 C         -3.3325975809        0.4008755131        0.6533619766
 C         -2.2728288556        0.4812995079       -0.4607703666
 O         -2.4326704378       -0.2445943001       -1.4498994352
 N         -1.2497035985        1.3137812520       -0.3406630278
 C         -0.2732942793        1.3443689436       -1.4265338443
 C          1.0284608521        2.0056333283       -0.9892510631
 C          1.4583217145        1.5028399373        0.3950890329
 C          0.3655032609        1.8030842934        1.4367306550
 C         -0.9629195442        2.1899182029        0.7735730386
 N          1.7769098540        0.0897261451        0.3244353732
 C          0.9503304467       -0.9818678002        0.4776845106
 N          1.5203719254       -2.1344204049        0.2949526945
 C          2.8258759420       -1.8384772049       -0.0208391010
 C          2.9935729555       -0.4333728393       -0.0154074438
 C          4.2464532587        0.0956512245       -0.3297452320
 C          4.8750978299        1.3590441136       -0.4744737334
 C          6.1728103237        1.1131437953       -0.8188910260
 N          6.3923015606       -0.2298646578       -0.8995793369
 C          5.2373669588       -0.8847127817       -0.6106479095
 N          5.0949762420       -2.2142471144       -0.6086107885
 C          3.9000788069       -2.6836905659       -0.3183398233
 H         -3.7064998068        1.3945398483        0.9023549396
 H          7.2612854060       -0.6775891120       -1.1369580186
 H         -5.1774969285        1.2189888274       -0.9621662870
 H         -4.0092914915       -0.8190397240       -0.7707492754
 H         -5.8259930726       -1.6745336443        1.1167523144
 H         -4.2760225348       -2.4259995440        0.7125965481
 H         -3.9388410328       -1.8865354407        3.0363290059
 H         -4.7966033838       -0.3499105763        2.8855192056
 H         -2.4549903409        0.3038671259        2.6641116762
 H         -2.1164687945       -1.1023661142        1.6425587454
 H         -0.0950514911        0.3122910596       -1.7451747709
 H         -0.7010869267        1.8763137326       -2.2822181397
 H          1.8013064813        1.7726165118       -1.7221963329
 H          0.9227339913        3.0887107389       -0.9510537550
 H          2.3900671670        1.9979591771        0.6809630600
 H          0.2324165403        0.9347378878        2.0809115395
 H          0.6832000566        2.6317218009        2.0674909439
 H         -0.8984879255        3.2112576923        0.3900738451
 H         -1.7604542191        2.1527407828        1.5090386820
 H         -0.0849768525       -0.8844942193        0.7305193551
 H          4.4331909757        2.3267669741       -0.3498372243
 H          6.9624349012        1.8111171802       -1.0144921523
 H          3.7877370439       -3.7576935027       -0.3215205929
 H         -6.9059249290       -1.2993932494       -0.8298080733
 H         -7.2401048288        0.1490702325       -1.7631493382
 H         -5.8383576388       -0.8331831186       -2.1595855915
 H         -6.9812585062        0.1681556729        1.2808623473
 H         -5.8378019726        1.5024405989        1.4674950235
 H         -7.1780241250        1.6358567921        0.3459588035
  57
        -81.17468984
 C         -4.7919542152       -1.5316097839       -1.9773817221
 C         -4.3769572820       -1.5603179733       -0.5120514175
 C         -5.1866543952       -2.5803861118        0.2767414602
 N         -4.5046289064       -0.2214104584        0.1386292624
 C         -5.8298822782        0.4351366918        0.0561184548
 C         -5.5137523840        1.8906023271        0.3617547417
 C         -4.2236840415        2.1083473974       -0.4279891517
 C         -3.4730506424        0.7758437590       -0.2588843349
 C         -2.4724300718        0.8243054681        0.9106130241
 O         -2.7837095139        0.2294616766        1.9485249129
 N         -1.3484270031        1.5127837375        0.7632266024
 C         -0.4215285663        1.6221471510        1.8756156720
 C          0.9028706458        0.9238064761        1.5459931841
 C          1.2381396816        1.0865515186        0.0502001877
 C          0.5893527490        2.3658383982       -0.4767024801
 C         -0.9313369541        2.1850950286       -0.4581703121
 N          2.6679595712        1.0649483289       -0.1563766761
 C          3.5414653624        2.1113331144       -0.1949755656
 N          4.7846990058        1.7647845749       -0.3410308628
 C          4.7700525706        0.3899897603       -0.3935013897
 C          3.4354940632       -0.0607394240       -0.2688203048
 C          3.1820402696       -1.4330604247       -0.2867671115
 C          2.0849572331       -2.3268092706       -0.1889270819
 C          2.5966049204       -3.5884243888       -0.2880514635
 N          3.9497282882       -3.5358165453       -0.4425532106
 C          4.3446657197       -2.2357269061       -0.4437371712
 N          5.6106143395       -1.8234521220       -0.5701383848
 C          5.8188592864       -0.5241327806       -0.5432552472
 H         -2.9776183978        0.4583281066       -1.1754445399
 H          4.5704437690       -4.3223327456       -0.5334413385
 H         -3.3171915515       -1.8237376732       -0.4369548336
 H         -4.2713579417       -0.3634509699        1.1542288099
 H         -6.2132945586        0.3389021717       -0.9581490018
 H         -6.5256815530       -0.0140813536        0.7597319279
 H         -5.3375257652        2.0301080565        1.4286454531
 H         -6.3096321867        2.5608542316        0.0511970796
 H         -4.4474908742        2.2831208513       -1.4789844500
 H         -3.6567821067        2.9534537549       -0.0490044887
 H         -0.2561739912        2.6816798776        2.0813689834
 H         -0.8843905375        1.1672763387        2.7515704827
 H          1.6964881522        1.3688797788        2.1471490890
 H          0.8527902538       -0.1350392058        1.7991416817
 H          0.8408057043        0.2346277254       -0.5127716224
 H          0.8861574173        3.2121661889        0.1410686904
 H          0.9127351393        2.5641588523       -1.4980631142
 H         -1.2253020653        1.5867799901       -1.3209711626
 H         -1.4108532275        3.1648584889       -0.5349961733
 H          3.2294323805        3.1332488927       -0.1226503493
 H          1.0526678509       -2.0779161159       -0.0521998428
 H          2.0853467070       -4.5299430071       -0.2582911957
 H          6.8424106867       -0.1944803202       -0.6429162590
 H         -6.2514655277       -2.3776639702        0.2097390142
 H         -5.0107036491       -3.5720934165       -0.1290696514
 H         -4.8900624984       -2.5902029203        1.3229147871
 H         -4.3727585159       -0.6810394624       -2.5067540028
 H         -4.4291051389       -2.4337781264       -2.4611177221
 H         -5.8725705646       -1.5189103294       -2.0838669893
  57
        -81.17468365
 C         -4.6422949963       -1.6017932037       -1.9857635414
 C         -4.2416354316       -1.6102749889       -0.5162004444
 C         -5.0259530791       -2.6521707363        0.2696655158
 N         -4.4184064343       -0.2731194556        0.1266088729
 C         -5.7646334268        0.3378473715        0.0318539868
 C         -5.4998003231        1.8070215729        0.3208643779
 C         -4.2134533821        2.0582669646       -0.4647865941
 C         -3.4181955283        0.7561724757       -0.2696531107
 C         -2.4336035681        0.8505928280        0.9110948505
 O         -2.7290238535        0.2425230954        1.9460035217
 N         -1.3393957700        1.5875958523        0.7768297924
 C         -0.4191645340        1.7178313517        1.8924710895
 C          0.9113974864        1.0265988492        1.5698125522
 C          1.2243838812        1.1531902986        0.0661495410
 C          0.5930499410        2.4365574521       -0.4721129062
 C         -0.9316664892        2.2821010205       -0.4345229335
 N          2.6492156530        1.0947573338       -0.1639039560
 C          3.5476099781        2.1181604428       -0.2337747699
 N          4.7791884149        1.7379261069       -0.3944570516
 C          4.7295301456        0.3632204720       -0.4239845067
 C          3.3864799247       -0.0514926554       -0.2703024302
 C          3.0978505830       -1.4169022785       -0.2619507624
 C          1.9803242945       -2.2804488162       -0.1305068263
 C          2.4580304756       -3.5562835316       -0.2168763961
 N          3.8091437522       -3.5408680078       -0.3953203523
 C          4.2368917564       -2.2515049572       -0.4247249306
 N          5.5107212201       -1.8737222976       -0.5768816262
 C          5.7523137083       -0.5798788592       -0.5746254493
 H         -2.8995244201        0.4444632491       -1.1754930416
 H          4.4080183086       -4.3442673008       -0.4848332461
 H         -3.1747573576       -1.8392853202       -0.4293672957
 H         -4.1865934193       -0.4027230104        1.1444087123
 H         -6.1406089464        0.2165869743       -0.9824698864
 H         -6.4477036081       -0.1262982795        0.7382631065
 H         -5.3344353355        1.9656990320        1.3867973469
 H         -6.3163683653        2.4456992202       -0.0023595312
 H         -4.4373935965        2.2078804895       -1.5196579254
 H         -3.6781175430        2.9285812076       -0.0973754405
 H         -0.2639708947        2.7810883039        2.0853064906
 H         -0.8800771272        1.2684341221        2.7721520786
 H          1.7069597261        1.4975453724        2.1480380643
 H          0.8774712081       -0.0257777777        1.8514531277
 H          0.7987632800        0.2996020942       -0.4732169447
 H          0.9117158016        3.2846487842        0.1323814010
 H          0.9098141558        2.6164826194       -1.4988212166
 H         -1.2521547750        1.7135063527       -1.3070799388
 H         -1.3947623344        3.2720951128       -0.4755365653
 H          3.2621209438        3.1486316061       -0.1730751382
 H          0.9574651362       -2.0027304127        0.0210409520
 H          1.9237215773       -4.4837869154       -0.1624870440
 H          6.7822785139       -0.2783337217       -0.6950109327
 H         -4.7398686534       -2.6471907231        1.3188011634
 H         -6.0960343286       -2.4844615290        0.1908032894
 H         -4.8136828968       -3.6396215363       -0.1291291381
 H         -5.7215852793       -1.6252055001       -2.1033010702
 H         -4.2459814237       -0.7402096725       -2.5150007831
 H         -4.2448730720       -2.4937074871       -2.4613338579
  57
        -81.17468046
 C         -4.5876539184       -1.6185031775       -1.9958753137
 C         -4.1897960841       -1.6256088702       -0.5255447472
 C         -4.9621798038       -2.6794366964        0.2562014742
 N         -4.3848462368       -0.2924449401        0.1202967671
 C         -5.7384872033        0.3017837771        0.0240527668
 C         -5.4926461480        1.7739848931        0.3147033070
 C         -4.2082582618        2.0419792174       -0.4685733281
 C         -3.3968184262        0.7504399181       -0.2710913894
 C         -2.4175865801        0.8556957699        0.9133850323
 O         -2.7056454898        0.2374376752        1.9442781786
 N         -1.3357500673        1.6119583077        0.7868379623
 C         -0.4175659511        1.7457977871        1.9037264543
 C          0.9162085501        1.0607037940        1.5799186804
 C          1.2185522519        1.1782091964        0.0735482939
 C          0.5931540626        2.4646671867       -0.4642692531
 C         -0.9329469022        2.3203951794       -0.4177465378
 N          2.6408864020        1.1063070428       -0.1668711474
 C          3.5479756141        2.1209947871       -0.2497193444
 N          4.7748333263        1.7284040931       -0.4166189233
 C          4.7124502324        0.3540605107       -0.4371719361
 C          3.3668417503       -0.0472875206       -0.2712388333
 C          3.0655854388       -1.4098363348       -0.2527865009
 C          1.9410441771       -2.2621475250       -0.1082954629
 C          2.4059637851       -3.5428345264       -0.1923687630
 N          3.7556635986       -3.5409746326       -0.3817167157
 C          4.1954045666       -2.2559302025       -0.4202970413
 N          5.4715531019       -1.8909372243       -0.5840197942
 C          5.7252651322       -0.5993735398       -0.5901448387
 H         -2.8703033996        0.4457764777       -1.1748963237
 H          4.3462034966       -4.3503907749       -0.4719322954
 H         -3.1201973966       -1.8411584848       -0.4372035391
 H         -4.1535025567       -0.4222812723        1.1382221387
 H         -6.1114298814        0.1767903404       -0.9909437412
 H         -6.4167655921       -0.1716529297        0.7288970170
 H         -5.3311426716        1.9339100248        1.3810375503
 H         -6.3167099226        2.4024818167       -0.0094431576
 H         -4.4322579032        2.1879711813       -1.5239555397
 H         -3.6847267642        2.9193654221       -0.1009954342
 H         -0.2675348181        2.8097027703        2.0965501245
 H         -0.8768191231        1.2937737091        2.7828903172
 H          1.7123661181        1.5410857923        2.1494595900
 H          0.8907720389        0.0102020754        1.8692992781
 H          0.7815506344        0.3258990787       -0.4587448807
 H          0.9209003045        3.3112437348        0.1375302834
 H          0.9060798825        2.6408937855       -1.4927601731
 H         -1.2650011634        1.7675151116       -1.2957015061
 H         -1.3894534729        3.3141160520       -0.4397266456
 H          3.2720916246        3.1543590097       -0.1938317447
 H          0.9221194203       -1.9739033317        0.0502320406
 H          1.8634255066       -4.4649937554       -0.1294704481
 H          6.7570965768       -0.3080114637       -0.7192974865
 H         -4.6776904395       -2.6738536648        1.3057785029
 H         -6.0341535316       -2.5248272728        0.1762626869
 H         -4.7370338280       -3.6629995719       -0.1451344789
 H         -4.2020985871       -0.7500896203       -2.5218941628
 H         -4.1771488106       -2.5035289530       -2.4731824228
 H         -5.6662891486       -1.6563477120       -2.1156705864
  57
        -81.17466114
 C         -4.5006540881       -1.6318237016       -2.0204789582
 C         -4.1072472700       -1.6447368616       -0.5490192302
 C         -4.8595577289       -2.7218427600        0.2204341932
 N         -4.3319439476       -0.3221797508        0.1089465081
 C         -5.6973401870        0.2449110028        0.0143258884
 C         -5.4826467644        1.7197893144        0.3163138536
 C         -4.2022932263        2.0198044609       -0.4618807484
 C         -3.3646436799        0.7445692002       -0.2696362690
 C         -2.3929975109        0.8604581161        0.9202962406
 O         -2.6690342821        0.2223187148        1.9422464916
 N         -1.3304047646        1.6455519627        0.8082272291
 C         -0.4140011327        1.7792593226        1.9266307324
 C          0.9241352461        1.1047597854        1.5965480443
 C          1.2090272483        1.2153858624        0.0865698361
 C          0.5919134225        2.5086051255       -0.4445804130
 C         -0.9358182912        2.3782796123       -0.3840455160
 N          2.6269370395        1.1244211503       -0.1712164833
 C          3.5465361804        2.1259357258       -0.2732047500
 N          4.7657253089        1.7151428291       -0.4524637628
 C          4.6843516255        0.3416349067       -0.4616676152
 C          3.3356366114       -0.0397451992       -0.2757807952
 C          3.0155581912       -1.3976821830       -0.2426112389
 C          1.8812066243       -2.2327944380       -0.0761420390
 C          2.3271522976       -3.5205672702       -0.1549223244
 N          3.6741869099       -3.5391889228       -0.3620591041
 C          4.1312542070       -2.2608124832       -0.4175538737
 N          5.4102673039       -1.9149107098       -0.5998066731
 C          5.6818108283       -0.6271317933       -0.6194714586
 H         -2.8271731012        0.4571586716       -1.1727274061
 H          4.2520859232       -4.3575094731       -0.4532898795
 H         -3.0335805741       -1.8387836411       -0.4594233880
 H         -4.1005124311       -0.4574589878        1.1262265742
 H         -6.0656986815        0.1198350671       -1.0023367345
 H         -6.3671175995       -0.2476558682        0.7141820809
 H         -5.3269631710        1.8753225475        1.3841542140
 H         -6.3188067918        2.3333976917       -0.0053436534
 H         -4.4269424359        2.1670829670       -1.5169811065
 H         -3.6978288130        2.9057346586       -0.0882067974
 H         -0.2712531584        2.8431278883        2.1244961625
 H         -0.8698784616        1.3191220112        2.8032851577
 H          1.7216392745        1.5966568465        2.1542273641
 H          0.9119950776        0.0558816624        1.8927158081
 H          0.7547057115        0.3672779558       -0.4380858755
 H          0.9332873037        3.3505146921        0.1563039684
 H          0.8979534361        2.6837484358       -1.4752742112
 H         -1.2848038719        1.8512913474       -1.2708436085
 H         -1.3830132164        3.3764885442       -0.3747212103
 H          3.2851708112        3.1633167992       -0.2218820165
 H          0.8687280277       -1.9288102045        0.0943237963
 H          1.7728968032       -4.4344962708       -0.0764908760
 H          6.7158512488       -0.3511131341       -0.7637873402
 H         -5.9342978747       -2.5884483214        0.1394692689
 H         -4.6133519351       -3.6965585407       -0.1899799937
 H         -4.5774567028       -2.7206903176        1.2706716715
 H         -4.0698922804       -2.5032133630       -2.5049863122
 H         -5.5778706117       -1.6914057056       -2.1441058744
 H         -4.1320668238       -0.7503048259       -2.5368005742
  57
        -81.17465919
 C         -6.6229393462       -0.6509771958       -0.7294476953
 C         -5.6498372004        0.3238958293       -0.0758549888
 C         -5.1915759054        1.3438673340       -1.1122379463
 N         -4.4913510438       -0.4458562512        0.4744683861
 C         -4.8535563163       -1.3376395355        1.6180038402
 C         -4.0524016537       -0.8168676903        2.8063053460
 C         -2.7755465820       -0.3166730569        2.1428997472
 C         -3.3181158179        0.3753847851        0.8863309036
 C         -2.3246212292        0.3296183230       -0.2854657517
 O         -2.5014136584       -0.5396284562       -1.1461173909
 N         -1.3236453838        1.1972597838       -0.3366834513
 C         -0.4086983178        1.1012973637       -1.4710391775
 C          0.8921937026        1.8499234856       -1.2067797672
 C          1.4102324670        1.5563000198        0.2069060921
 C          0.3695849227        1.9859946999        1.2554480118
 C         -1.0095018911        2.2290823226        0.6268047763
 N          1.7555556033        0.1520475737        0.3181951818
 C          0.9711605826       -0.8964290047        0.6932412415
 N          1.5542037545       -2.0554776835        0.6326528483
 C          2.8226388475       -1.7914023888        0.1710578348
 C          2.9543170201       -0.3985451619       -0.0409155886
 C          4.1647956705        0.0961056909       -0.5291654992
 C          4.7476686172        1.3334739072       -0.9053141274
 C          6.0202832351        1.0579485838       -1.3148171260
 N          6.2670736338       -0.2793475490       -1.2180894881
 C          5.1553558548       -0.9009077067       -0.7448175017
 N          5.0475588286       -2.2176841612       -0.5389501779
 C          3.8913538805       -2.6560876233       -0.0876493197
 H         -3.6544098135        1.3859839900        1.1145010555
 H          7.1255572672       -0.7452120238       -1.4586327864
 H         -6.1263986237        0.8334178972        0.7669353824
 H         -4.1064001495       -1.0054821402       -0.3201959313
 H         -5.9231210416       -1.2990171514        1.8051275475
 H         -4.5694118206       -2.3613554469        1.3803072884
 H         -3.8647348771       -1.5938581507        3.5415837978
 H         -4.5721442055        0.0057827748        3.2961070534
 H         -2.2087285436        0.3582761887        2.7778077646
 H         -2.1419741185       -1.1617722091        1.8682692805
 H         -0.2136188507        0.0396995818       -1.6538799068
 H         -0.8998061951        1.4980336460       -2.3653120604
 H          1.6315834356        1.5354665489       -1.9438109362
 H          0.7531324296        2.9247394869       -1.3124553105
 H          2.3449261586        2.1007745082        0.3661450073
 H          0.3080797141        1.2266505079        2.0340940739
 H          0.6930885048        2.9118936764        1.7283974815
 H         -1.0098821848        3.1887768280        0.1036202649
 H         -1.7593413983        2.2682111252        1.4109359694
 H         -0.0419369347       -0.7772352684        1.0167099751
 H          4.2922039696        2.3027230226       -0.8854796473
 H          6.7741906937        1.7306801227       -1.6725770202
 H          3.8062512523       -3.7204875024        0.0735314299
 H         -6.0656753599        1.7806105100       -1.5858433047
 H         -4.6149950735        2.1565959104       -0.6820609457
 H         -4.5985812607        0.8621873642       -1.8863109599
 H         -6.9704022853       -1.4206568565       -0.0480144743
 H         -7.4939282739       -0.1085035601       -1.0844378686
 H         -6.1551534158       -1.1307241385       -1.5861540078
  57
        -81.17464204
 C         -6.6677707365       -0.5643915702       -0.7724606887
 C         -5.6834143238        0.3617208976       -0.0668454668
 C         -5.2320173930        1.4460005169       -1.0390862936
 N         -4.5220317849       -0.4465401308        0.4183783566
 C         -4.8741998024       -1.4102390504        1.5051422226
 C         -4.0661978400       -0.9632467716        2.7183607867
 C         -2.7924405706       -0.4246653870        2.0795579412
 C         -3.3405351585        0.3417918989        0.8691578742
 C         -2.3550520758        0.3577566803       -0.3101540245
 O         -2.5468052386       -0.4546282086       -1.2217811603
 N         -1.3428753151        1.2136397546       -0.3126927620
 C         -0.4277109914        1.1695209099       -1.4501500737
 C          0.8807829280        1.8887723206       -1.1450120644
 C          1.4006402549        1.5140010320        0.2488488402
 C          0.3597706536        1.8741326264        1.3240406322
 C         -1.0128391265        2.1807116163        0.7107458624
 N          1.7546161942        0.1081401209        0.2804685455
 C          0.9629922389       -0.9654580041        0.5566250305
 N          1.5582537611       -2.1153403736        0.4546613268
 C          2.8441921428       -1.8165223768        0.0685019232
 C          2.9733969835       -0.4126546613       -0.0545021066
 C          4.2010291894        0.1175416204       -0.4549230374
 C          4.7902852155        1.3784261769       -0.7294164746
 C          6.0835581878        1.1354052682       -1.0921170141
 N          6.3373535457       -0.2036289682       -1.0621916152
 C          5.2097739956       -0.8587781733       -0.6807566546
 N          5.1042181173       -2.1860290143       -0.5580346693
 C          3.9318702535       -2.6575835102       -0.1894812244
 H         -3.6682245862        1.3395709041        1.1578558200
 H          7.2109910473       -0.6490183172       -1.2864170810
 H         -6.1486286460        0.8160777286        0.8129852902
 H         -4.1485313294       -0.9546263931       -0.4155889436
 H         -5.9425423189       -1.3874490554        1.7013197794
 H         -4.5882894828       -2.4157369809        1.2009011057
 H         -3.8754507471       -1.7835450875        3.4041473443
 H         -4.5824597126       -0.1713879259        3.2597964752
 H         -2.2221456749        0.2108762114        2.7509274937
 H         -2.1601926750       -1.2518043874        1.7523744316
 H         -0.2437799939        0.1175320105       -1.6909579261
 H         -0.9132733483        1.6197151555       -2.3218536562
 H          1.6165924062        1.6096579560       -1.8996914187
 H          0.7517199384        2.9690487399       -1.1908182855
 H          2.3322779211        2.0533712633        0.4384019393
 H          0.2846193184        1.0558874048        2.0394840699
 H          0.6911734762        2.7557772608        1.8703116616
 H         -0.9950268784        3.1699337946        0.2463067952
 H         -1.7633489303        2.1862904524        1.4951638744
 H         -0.0651601261       -0.8710572837        0.8386325439
 H          4.3259588863        2.3422197456       -0.6763840993
 H          6.8475845095        1.8327557308       -1.3729771590
 H          3.8499737007       -3.7301696417       -0.0952996145
 H         -4.6447208040        1.0146264717       -1.8464237726
 H         -6.1091426888        1.9121523426       -1.4777755961
 H         -4.6521618793        2.2298019315       -0.5621652907
 H         -7.0100442565       -1.3770174616       -0.1400393527
 H         -7.5409531376        0.0032030982       -1.0795776764
 H         -6.2120118484       -0.9869659512       -1.6649767563
  57
        -81.17462703
 C         -4.7238521519       -2.4010967105       -0.6791151735
 C         -4.4409514501       -1.5449971451        0.5485021289
 C         -5.3506208092       -1.9184813188        1.7109642343
 N         -4.5805362821       -0.0847580699        0.2642487510
 C         -5.8653015512        0.3625102305       -0.3207367209
 C         -5.5252078869        1.7305336296       -0.8906397692
 C         -4.1569933720        1.4808340730       -1.5245111182
 C         -3.4792651327        0.5085893203       -0.5425525079
 C         -2.5785281005        1.2446011443        0.4657694736
 O         -3.0064380317        1.3772643001        1.6179359557
 N         -1.4101498780        1.7170555092        0.0528480466
 C         -0.5647324461        2.4501962875        0.9777103251
 C          0.7264647861        1.6723548300        1.2506548099
 C          1.2343631442        0.9961354005       -0.0380005834
 C          0.6600744963        1.7128180975       -1.2643030837
 C         -0.8594871948        1.5349973851       -1.2819368738
 N          2.6776437744        0.9593043291       -0.0790397800
 C          3.5249946925        2.0263868311       -0.1438855078
 N          4.7836077346        1.7094519879       -0.1720786974
 C          4.8063454667        0.3345108781       -0.1224655016
 C          3.4775603227       -0.1486219144       -0.0619435323
 C          3.2655476147       -1.5280058371       -0.0035449051
 C          2.1917333170       -2.4528254984        0.0685851441
 C          2.7467105011       -3.6995477341        0.0950509684
 N          4.1051890504       -3.6096501416        0.0429791227
 C          4.4599373296       -2.2995546668       -0.0165466234
 N          5.7200752586       -1.8560330990       -0.0755713253
 C          5.8888095239       -0.5519758015       -0.1270902753
 H         -2.9235715144       -0.2762934169       -1.0537909029
 H          4.7544271308       -4.3779946264        0.0496655751
 H         -3.4014175586       -1.6851782066        0.8615243932
 H         -4.4496037806        0.4077926552        1.1838969418
 H         -6.1494467568       -0.3183434244       -1.1212024266
 H         -6.6438899170        0.3898405744        0.4369460159
 H         -5.4484397397        2.4705109793       -0.0935792483
 H         -6.2610892025        2.0730686269       -1.6119869187
 H         -4.2713536839        1.0114094769       -2.4999833518
 H         -3.5953338828        2.4023212312       -1.6468980533
 H         -0.3434353298        3.4274758188        0.5443188929
 H         -1.1206197190        2.5992616241        1.9037161608
 H          1.4796488605        2.3627692718        1.6299600004
 H          0.5559079522        0.9173718026        2.0180385528
 H          0.9090071543       -0.0469049179       -0.0617387709
 H          0.9343720234        2.7664022024       -1.2380494467
 H          1.0788642965        1.2850743737       -2.1750986590
 H         -1.0894509225        0.5293741219       -1.6363662083
 H         -1.2989438191        2.2567625376       -1.9759580371
 H          3.1789297599        3.0404187266       -0.1709936695
 H          1.1435175455       -2.2381504480        0.1042542613
 H          2.2623967106       -4.6541757275        0.1479383041
 H          6.9071390138       -0.1957700272       -0.1742249299
 H         -5.1461275396       -1.2991894160        2.5812206889
 H         -6.3980995685       -1.8206156434        1.4413981798
 H         -5.1740819990       -2.9531197613        1.9892917215
 H         -4.2303410738       -2.0201948620       -1.5684317591
 H         -4.3516242694       -3.4052839982       -0.4983160826
 H         -5.7898774926       -2.4798399498       -0.8705412188
  57
        -81.17460306
 C         -7.2812297472        0.6565106550       -0.4962835281
 C         -5.9601109012        1.2619248751       -0.0346813952
 C         -5.1795390747        1.7423405234       -1.2535115448
 N         -5.1919107759        0.2249456369        0.7216606343
 C         -5.8190398041       -0.1611830366        2.0210152285
 C         -4.8322267516        0.2891020034        3.0917155064
 C         -3.4871560084        0.0649117079        2.4121337847
 C         -3.7614758804        0.5513416836        0.9833755853
 C         -2.9423754862       -0.2217877965       -0.0596458396
 O         -3.5312846794       -1.0838758105       -0.7218021903
 N         -1.6486019105        0.0353811905       -0.1898509937
 C         -0.8748769065       -0.7692370604       -1.1278292383
 C          0.5543119912       -0.9257732517       -0.6335485565
 C          1.2622558935        0.4402328224       -0.6279749913
 C          0.2658747343        1.5445112225       -0.2465041619
 C         -0.8995039964        1.0104182855        0.5839726202
 N          2.4097241730        0.3931336627        0.2542137276
 C          2.4843085847        0.6945044773        1.5818089254
 N          3.6490010829        0.4806475981        2.1157066958
 C          4.4255836813       -0.0136660821        1.0941613535
 C          3.6466720361       -0.0796883151       -0.0850174501
 C          4.2343401609       -0.5662165521       -1.2539007447
 C          3.8885806804       -0.8249164907       -2.6051376085
 C          5.0078316501       -1.3226808825       -3.2074309991
 N          6.0328841993       -1.3920032182       -2.3114906088
 C          5.5978872971       -0.9403115184       -1.1060128409
 N          6.3466918889       -0.8789875974        0.0002880109
 C          5.7639567894       -0.4210168132        1.0880003277
 H         -3.6206167855        1.6288504272        0.9125194588
 H          6.9638823219       -1.7251030056       -2.4964200475
 H         -6.1395861500        2.0954133998        0.6508152440
 H         -5.1189913844       -0.6037812012        0.0865646378
 H         -6.7869571581        0.3185850418        2.1352653016
 H         -5.9507275880       -1.2415747568        2.0491957664
 H         -4.9391286763       -0.2825513200        4.0089351935
 H         -4.9668473335        1.3447268936        3.3246400255
 H         -2.6825926394        0.6180146095        2.8866788397
 H         -3.2329153051       -0.9954682324        2.4103050779
 H         -1.3648699019       -1.7411071250       -1.2189149321
 H         -0.8839302704       -0.2953116941       -2.1143270061
 H          0.5536726857       -1.3402671643        0.3760897478
 H          1.0909322635       -1.6243986075       -1.2741126145
 H          1.6628293268        0.6499240350       -1.6241900398
 H          0.7769097454        2.3329978276        0.3043819867
 H         -0.1311611022        1.9881196323       -1.1592734147
 H         -1.5437707798        1.8448184259        0.8565860835
 H         -0.5279922049        0.5425268096        1.5006459159
 H          1.6602036675        1.0879684704        2.1410115606
 H          2.9403342551       -0.6691984540       -3.0782419300
 H          5.1452819448       -1.6355153051       -4.2234046693
 H          6.3702234500       -0.3751479908        1.9804988870
 H         -4.3112683285        2.3397508839       -0.9944411650
 H         -4.8587120868        0.8976081049       -1.8587389523
 H         -5.8279473549        2.3629306483       -1.8646463587
 H         -7.8767994044        0.2673429912        0.3230769963
 H         -7.8714334033        1.4172356238       -0.9982319747
 H         -7.0981547888       -0.1474024789       -1.2055178197
  57
        -81.17459710
 C         -4.1416983212        2.7637897750       -0.8031825323
 C         -5.2016399442        2.0594030360        0.0341464546
 C         -5.2496256386        2.6205100205        1.4501955890
 N         -4.9588899299        0.5849462098        0.0077402288
 C         -6.1118078781       -0.2407740752        0.4429411486
 C         -5.4769798655       -1.5672485086        0.8290166031
 C         -4.2065540794       -1.1123221043        1.5447101151
 C         -3.7417040381        0.0888454143        0.7056679841
 C         -2.7674668643       -0.3315442200       -0.4104266598
 O         -3.2034033891       -0.3503283074       -1.5669870112
 N         -1.5270217063       -0.6712133490       -0.0875523438
 C         -0.6045316308       -1.0907267156       -1.1267530398
 C          0.4925417432       -0.0374303829       -1.3164970314
 C          0.8644985865        0.5907629154        0.0382765478
 C          0.5567140500       -0.3841166558        1.1795558863
 C         -0.9560396258       -0.6227541268        1.2487550689
 N          2.2412467661        1.0259992912        0.0693849392
 C          2.6374826531        2.3093969384        0.3061998412
 N          3.9220088124        2.4835128203        0.3269568209
 C          4.4496090258        1.2364229494        0.0908111042
 C          3.3965737116        0.3019685752       -0.0758398069
 C          3.7345947109       -1.0316574982       -0.3323263109
 C          3.1038197261       -2.2803601897       -0.5752712762
 C          4.0956658307       -3.2001425718       -0.7548836129
 N          5.3136695526       -2.6029699399       -0.6375657043
 C          5.1350715039       -1.2807373445       -0.3830278182
 N          6.1326901820       -0.4060889742       -0.2207250194
 C          5.7888655663        0.8418651041        0.0118241940
 H         -3.3107119417        0.8780830529        1.3175364241
 H          6.2099863255       -3.0502644627       -0.7286650837
 H         -6.1783090905        2.1994197435       -0.4380104320
 H         -4.7329760041        0.3283542699       -0.9888845950
 H         -6.5785437145        0.2229926030        1.3112479996
 H         -6.8431361937       -0.3226382480       -0.3578527923
 H         -5.2283438969       -2.1471284645       -0.0600940876
 H         -6.1228257570       -2.1653340561        1.4648208443
 H         -4.4373499343       -0.7928766766        2.5596909873
 H         -3.4603268590       -1.8996125067        1.5900609899
 H         -0.1784591020       -2.0520012822       -0.8333589349
 H         -1.1651940129       -1.2273104869       -2.0515854130
 H          1.3685436205       -0.5060170626       -1.7624708448
 H          0.1516424107        0.7417774028       -1.9981993475
 H          0.2702972583        1.4986405519        0.1930034027
 H          1.1017371019       -1.3127220946        1.0232527474
 H          0.8953660593        0.0367330360        2.1263252047
 H         -1.4179202309        0.1862236787        1.8136027448
 H         -1.1467369921       -1.5634938996        1.7733994925
 H          1.9332977034        3.1035727839        0.4593808682
 H          2.0559345665       -2.4895306938       -0.6273358677
 H          4.0147816243       -4.2490266715       -0.9600409381
 H          6.5903126427        1.5539610444        0.1407091476
 H         -4.2612403605        2.6886988695        1.8955404134
 H         -5.6544329519        3.6274856457        1.4093536349
 H         -5.8908407028        2.0370175450        2.1030749477
 H         -4.0835522175        2.3408803643       -1.8034432343
 H         -4.3927943528        3.8159049592       -0.8968900859
 H         -3.1595926522        2.6948431606       -0.3425370623
  57
        -81.17457534
 C         -4.2384677529       -1.7290383395       -2.0372242151
 C         -3.8666669109       -1.7095363837       -0.5602928980
 C         -4.5612961516       -2.8270019262        0.2056901724
 N         -4.1820521798       -0.3997126284        0.0861437572
 C         -5.5770249070        0.0846840837       -0.0339423212
 C         -5.4550653615        1.5721038825        0.2591873074
 C         -4.1826603628        1.9419402541       -0.5018053434
 C         -3.2741502546        0.7210082230       -0.2833514443
 C         -2.3317484551        0.9007718420        0.9225173666
 O         -2.5797471195        0.2432674618        1.9390998329
 N         -1.3239049820        1.7571503969        0.8301562209
 C         -0.4168106741        1.9229865993        1.9520090249
 C          0.9328487330        1.2641624612        1.6318751944
 C          1.1831468622        1.3139710965        0.1133455676
 C          0.5876483458        2.6059949909       -0.4452465202
 C         -0.9433291445        2.5104588307       -0.3527705282
 N          2.5892662640        1.1677017354       -0.1771825506
 C          3.5418995683        2.1303204357       -0.3333491774
 N          4.7383062603        1.6683630232       -0.5401432640
 C          4.6046661452        0.2989570174       -0.5126567014
 C          3.2494316635       -0.0250967892       -0.2743284292
 C          2.8776632327       -1.3678707979       -0.1962186523
 C          1.7182574375       -2.1530239450        0.0309240506
 C          2.1105878453       -3.4590363711       -0.0318991581
 N          3.4470960536       -3.5360236928       -0.2872370827
 C          3.9517522524       -2.2785230730       -0.3889506820
 N          5.2361220541       -1.9875989179       -0.6225150823
 C          5.5573889835       -0.7124405405       -0.6803814072
 H         -2.7033865936        0.4583366798       -1.1736655835
 H          3.9889177508       -4.3788033674       -0.3773320686
 H         -2.7843445268       -1.8362512111       -0.4544610302
 H         -3.9592824388       -0.5170852860        1.1076955779
 H         -5.9213830267       -0.0694615732       -1.0550368847
 H         -6.2274225077       -0.4418181029        0.6594830959
 H         -5.3258163500        1.7445987189        1.3279296755
 H         -6.3210239529        2.1323450004       -0.0804121639
 H         -4.3992059532        2.0652520800       -1.5617319672
 H         -3.7368679967        2.8597671251       -0.1302355833
 H         -0.2924767094        2.9920158136        2.1318145603
 H         -0.8683442672        1.4688155024        2.8338755097
 H          1.7301599612        1.7977441384        2.1499510887
 H          0.9500653770        0.2290937912        1.9732121882
 H          0.6906109738        0.4620158988       -0.3690597550
 H          0.9587445123        3.4552307512        0.1271648262
 H          0.8810088850        2.7457531624       -1.4848847545
 H         -1.3287556978        2.0188813648       -1.2437250500
 H         -1.3677589253        3.5172971408       -0.3011969032
 H          3.3204947733        3.1777750956       -0.2998845751
 H          0.7260952659       -1.8047690138        0.2339920816
 H          1.5247050587       -4.3482585658        0.0892821344
 H          6.5961809603       -0.4815064652       -0.8643721707
 H         -4.2923973519       -2.8039570595        1.2591419035
 H         -5.6410734219       -2.7595752117        0.1113052156
 H         -4.2511993829       -3.7866394753       -0.1968167054
 H         -3.7462191486       -2.5737033143       -2.5104070105
 H         -5.3078363253       -1.8573379130       -2.1757721522
 H         -3.9188636069       -0.8285313159       -2.5534764642
  57
        -81.17455662
 C         -5.0947016801       -1.6646969775       -1.6729894771
 C         -4.6920407897       -1.4843772732       -0.2151540661
 C         -5.5839810110       -2.2969198331        0.7136826613
 N         -4.7193762830       -0.0510076716        0.2055907859
 C         -5.9837223739        0.6867079893       -0.0164492300
 C         -5.5536288128        2.1407909494        0.0927583960
 C         -4.2333075496        2.1432941610       -0.6776489077
 C         -3.6051285645        0.7824382077       -0.3224816968
 C         -2.5974766841        0.9077390805        0.8335719369
 O         -2.9709971385        0.5458814744        1.9550067582
 N         -1.3978350409        1.4124533152        0.5773165837
 C         -0.4574731951        1.6141018441        1.6651760279
 C          0.8250844319        0.8108255618        1.4373351682
 C          1.2651324599        0.8723400837       -0.0410632586
 C          0.5737632141        2.0416570705       -0.7427763157
 C         -0.9323567006        1.7866453444       -0.7515886798
 N          2.7046645089        0.9470454041       -0.1469100255
 C          3.5010042992        2.0536604296       -0.1104774222
 N          4.7727790214        1.7999008116       -0.1784867040
 C          4.8610981205        0.4291916539       -0.2544137577
 C          3.5574708331       -0.1185028571       -0.2253098566
 C          3.4081513805       -1.5052932312       -0.2784167878
 C          2.3764606465       -2.4786664339       -0.2606503413
 C          2.9853141769       -3.6973945823       -0.3447584113
 N          4.3376630956       -3.5432013924       -0.4148329109
 C          4.6347995562       -2.2179567482       -0.3724545434
 N          5.8726567372       -1.7129263326       -0.4103785481
 C          5.9820171070       -0.4026474523       -0.3490494497
 H         -3.1481284686        0.3008981526       -1.1855104541
 H          5.0186044356       -4.2809836811       -0.4769179923
 H         -3.6563517476       -1.8111932595       -0.0780861050
 H         -4.5123938220       -0.0405206650        1.2360388917
 H         -6.3487096839        0.4758902393       -1.0201439458
 H         -6.7309686494        0.3993673363        0.7184781438
 H         -5.3885921561        2.4150082591        1.1350265792
 H         -6.2838882853        2.8221790738       -0.3334343819
 H         -4.4192116908        2.2033609240       -1.7485321663
 H         -3.6024636964        2.9784865027       -0.3865497402
 H         -0.2337353084        2.6805282675        1.7417113694
 H         -0.9407152601        1.2980420649        2.5903471165
 H          1.6103099482        1.2255031994        2.0704065395
 H          0.6786659638       -0.2271694670        1.7352094007
 H          0.9787961401       -0.0530309273       -0.5511723984
 H          0.8036398063        2.9768365572       -0.2354649029
 H          0.9258037024        2.1227032039       -1.7709373824
 H         -1.1420186397        0.9731640865       -1.4502622506
 H         -1.4482929486        2.6855231409       -1.0980589629
 H          3.1125740291        3.0492203202       -0.0400868488
 H          1.3218409478       -2.3102554180       -0.1849226779
 H          2.5441083364       -4.6740798279       -0.3594065072
 H          6.9821679586        0.0040097935       -0.3752336405
 H         -6.6294260304       -2.0286730643        0.5932049291
 H         -5.4824534967       -3.3523328178        0.4793562813
 H         -5.2967370667       -2.1565942205        1.7530767350
 H         -4.6034100943       -0.9499633695       -2.3266540866
 H         -4.8051934097       -2.6608336473       -1.9948042350
 H         -6.1699687885       -1.5821599377       -1.8004143263
  57
        -81.17455454
 C         -4.4739346659       -2.3813561412       -1.0026758647
 C         -4.2035014182       -1.6863689819        0.3254261323
 C         -5.0631761147       -2.2632968812        1.4418256117
 N         -4.4232815310       -0.2104966275        0.2474718391
 C         -5.7496887846        0.2413255912       -0.2326964698
 C         -5.4963575181        1.6834877458       -0.6430754877
 C         -4.1435871194        1.5810255313       -1.3464913688
 C         -3.3822639497        0.5441976084       -0.5032059900
 C         -2.4971670551        1.2043779786        0.5705806337
 O         -2.8843045965        1.1403525452        1.7428127711
 N         -1.3855731819        1.8221007582        0.1950858318
 C         -0.5476407455        2.4632583726        1.1924530057
 C          0.7760918322        1.7025625258        1.3374693720
 C          1.2182394624        1.1427587817       -0.0277954522
 C          0.6556800370        2.0223627064       -1.1480825862
 C         -0.8709528482        1.8874790399       -1.1636358041
 N          2.6554436422        1.0295701361       -0.1053172347
 C          3.5614897655        2.0474799406       -0.1667958450
 N          4.7993945010        1.6594349817       -0.2142155342
 C          4.7446334410        0.2851613090       -0.1782893028
 C          3.3914983776       -0.1220672056       -0.1050050165
 C          3.1017528877       -1.4873735133       -0.0531599377
 C          1.9781434612       -2.3497658918        0.0308503319
 C          2.4609556734       -3.6264489242        0.0395420150
 N          3.8213169700       -3.6138399822       -0.0350170198
 C          4.2495866601       -2.3257154255       -0.0901688856
 N          5.5320678840       -1.9541366641       -0.1635713905
 C          5.7746149864       -0.6614013208       -0.2054297959
 H         -2.7937777692       -0.1388869990       -1.1146903823
 H          4.4258885555       -4.4178665701       -0.0437111205
 H         -3.1505801757       -1.8122014117        0.5971620572
 H         -4.2818651914        0.1591993457        1.2219925957
 H         -6.0360339248       -0.3513478966       -1.0997793626
 H         -6.4969578042        0.1384923313        0.5496786753
 H         -5.4236208904        2.3258819752        0.2348384806
 H         -6.2749294258        2.0712254306       -1.2931169205
 H         -4.2730220836        1.2164896309       -2.3641311435
 H         -3.6326593647        2.5384695858       -1.3841141950
 H         -0.3693306340        3.4935143269        0.8792128661
 H         -1.0871309836        2.4751805831        2.1396117215
 H          1.5370218550        2.3818088263        1.7219045278
 H          0.6701931573        0.8859659034        2.0516237256
 H          0.8323660134        0.1278559683       -0.1550613086
 H          0.9567984962        3.0567408835       -0.9891295270
 H          1.0546525848        1.7049606420       -2.1110982038
 H         -1.1414494038        0.9796297358       -1.7018074955
 H         -1.3033386008        2.7441308791       -1.6886311761
 H          3.2737936264        3.0797341650       -0.1788280808
 H          0.9453244095       -2.0741764874        0.0890001284
 H          1.9239164366       -4.5523270264        0.0941280772
 H          6.8108625948       -0.3629655447       -0.2626887818
 H         -4.8690639694       -1.7581889282        2.3850195550
 H         -6.1207229070       -2.1867533165        1.2070063576
 H         -4.8265409872       -3.3150393592        1.5722296739
 H         -4.0247211923       -1.8565369638       -1.8406557595
 H         -4.0453489399       -3.3787533801       -0.9687076128
 H         -5.5390518984       -2.4921146359       -1.1829278702
  57
        -81.17454249
 C         -5.4859484403       -0.1823801385        2.0167207781
 C         -5.2091623865        0.1844573822        0.5644202033
 C         -6.4335613542       -0.0430001621       -0.3117055461
 N         -4.0529539720       -0.5738805065        0.0001252928
 C         -4.1295579619       -2.0520374654        0.0708140367
 C         -2.6791371101       -2.4830846497       -0.0797194621
 C         -1.9555353100       -1.4585994676        0.7913722464
 C         -2.7136293149       -0.1535415151        0.5013246153
 C         -2.1005146722        0.6820678234       -0.6393526233
 O         -2.7051058095        0.6968090185       -1.7193342232
 N         -0.9816954599        1.3592596267       -0.4196141132
 C         -0.4472879000        2.1888204530       -1.4925355035
 C          1.0732398674        2.1178235125       -1.5710240047
 C          1.7217463455        2.5375943556       -0.2438709082
 C          0.6958158956        2.5447529215        0.9014056589
 C         -0.2464673889        1.3514583664        0.8355673186
 N          2.8754331234        1.7214293357        0.0929261472
 C          4.0013760503        2.2794355944        0.6272997290
 N          4.9214604290        1.4326814006        0.9640266342
 C          4.3978327390        0.2046375714        0.6442611588
 C          3.1000793872        0.3638026825        0.0890800652
 C          2.4253419408       -0.8031378371       -0.3089881730
 C          1.1976639626       -1.2043065868       -0.9083573436
 C          1.2194639255       -2.5663536335       -1.0026469371
 N          2.3826517134       -3.0498395288       -0.4921869098
 C          3.1458950628       -2.0093299192       -0.0697258925
 N          4.3615185819       -2.1576883853        0.4644970691
 C          4.9826710651       -1.0539658058        0.8124571526
 H         -2.8221348180        0.4672660392        1.3905519075
 H          2.6658211680       -4.0143598561       -0.4499762960
 H         -4.9269003646        1.2402662623        0.5017571038
 H         -3.9852929578       -0.2974088319       -1.0134442307
 H         -4.5074550078       -2.3441593186        1.0488995863
 H         -4.7808517868       -2.4390185363       -0.7084213303
 H         -2.3570154483       -2.3963464368       -1.1176862997
 H         -2.5143896108       -3.5031412124        0.2537504463
 H         -2.0574202688       -1.7205943408        1.8433285977
 H         -0.8985665367       -1.3978184726        0.5518876001
 H         -0.8891736600        1.8420427742       -2.4287799695
 H         -0.7633325335        3.2244495220       -1.3358378494
 H          1.3943881573        1.1126796241       -1.8321625247
 H          1.4033859546        2.7756555316       -2.3741609373
 H          2.1186970917        3.5534896686       -0.3364719631
 H          1.2230266966        2.5283902500        1.8558387611
 H          0.1246307040        3.4713186934        0.8540154596
 H         -0.9403404043        1.4025114817        1.6759069323
 H          0.3370674722        0.4310404216        0.9253281709
 H          4.1031854023        3.3402011527        0.7502533535
 H          0.4021340566       -0.5863410565       -1.2686188127
 H          0.4772997301       -3.2267568344       -1.4043341880
 H          5.9700468253       -1.1555144419        1.2372646827
 H         -6.2255730129        0.2144892805       -1.3475275273
 H         -6.7704987051       -1.0741870500       -0.2608403594
 H         -7.2458786505        0.5900153476        0.0325519105
 H         -6.0009949762       -1.1351822910        2.0951311396
 H         -4.5773462504       -0.2197520054        2.6104546761
 H         -6.1343570305        0.5731506027        2.4506658886
  57
        -81.17454070
 C         -6.1315811269       -1.0384217159        1.4005121312
 C         -5.6276153831        0.3881652915        1.2353832765
 C         -6.6954452843        1.4142948991        1.5899353331
 N         -5.1288349170        0.6561530426       -0.1496333116
 C         -6.0666627086        0.3357050758       -1.2616057523
 C         -5.4286723561       -0.8451425103       -1.9793157821
 C         -3.9401403014       -0.5236192284       -1.8765141657
 C         -3.8087453648        0.0355954264       -0.4512598158
 C         -2.7798345041        1.1736567545       -0.3321888661
 O         -3.2171378466        2.3298965905       -0.2881356560
 N         -1.4909394323        0.8729391482       -0.2771186719
 C         -0.5199558616        1.9462547660       -0.1220608004
 C          0.5221456106        1.5509041170        0.9173917602
 C          1.3165057259        0.3098945122        0.4786876123
 C          0.5257222632       -0.4776667539       -0.5791138187
 C         -0.9623438203       -0.4834802954       -0.2507304070
 N          2.6244944073        0.6481435277       -0.0413823336
 C          2.9895452758        1.7343194432       -0.7802645741
 N          4.2372348256        1.7416878287       -1.1415699635
 C          4.7646191060        0.5791262074       -0.6291398260
 C          3.7482203324       -0.1232966226        0.0596648969
 C          4.0581034944       -1.3503912247        0.6486948956
 C          3.4210626295       -2.3839293327        1.3825197371
 C          4.3733105169       -3.3282399091        1.6368731339
 N          5.5684937655       -2.9462890878        1.1043240349
 C          5.4148379789       -1.7444567965        0.4893853611
 N          6.3881114736       -1.0847774294       -0.1479342297
 C          6.0630741798        0.0634008384       -0.7032797012
 H         -3.5988158048       -0.7554789345        0.2685445401
 H          6.4317616433       -3.4608849861        1.1477703319
 H         -4.7673252662        0.5465189285        1.8935661002
 H         -4.9013666480        1.6784248008       -0.1797169654
 H         -7.0578012055        0.1156248382       -0.8779066650
 H         -6.1294680585        1.1949667838       -1.9283277559
 H         -5.7641674383       -0.9253913322       -3.0093475566
 H         -5.6523361081       -1.7802954996       -1.4685985597
 H         -3.3249663860       -1.4033790124       -2.0398921576
 H         -3.6648872276        0.2376570216       -2.6069845829
 H         -0.0522074591        2.1604239108       -1.0869005498
 H         -1.0613576911        2.8394586781        0.1960461161
 H          1.1974344043        2.3865661935        1.0957277593
 H          0.0139778610        1.3370640406        1.8577732193
 H          1.5015595436       -0.3248002250        1.3499407313
 H          0.6871617033       -0.0272236905       -1.5593958355
 H          0.8913720268       -1.5031158938       -0.6248526088
 H         -1.1095703439       -0.9176230324        0.7440934689
 H         -1.4790130493       -1.0954512561       -0.9880079270
 H          2.3096510544        2.5221247782       -1.0352181578
 H          2.3949470437       -2.4337102547        1.6845100228
 H          4.2803950029       -4.2558070229        2.1658397115
 H          6.8490536211        0.5924436359       -1.2216209762
 H         -6.3112855836        2.4261283025        1.4828940688
 H         -7.5804195257        1.3080042916        0.9694733234
 H         -6.9969179627        1.2797902525        2.6244070509
 H         -6.3349537455       -1.2153238011        2.4526532852
 H         -7.0560644885       -1.2058274951        0.8569558780
 H         -5.3965679049       -1.7700073750        1.0793316070
  57
        -81.17445608
 C         -5.4026101149        1.3448477101        0.1242376617
 C         -5.3119123459       -0.0972787679        0.6063178890
 C         -5.3222012801       -0.1734872867        2.1282283911
 N         -4.1081248108       -0.7495075180        0.0084115346
 C         -4.1209839762       -2.2326063971        0.0610296057
 C         -2.6523527053       -2.6104798280       -0.0480267781
 C         -1.9914381557       -1.5478586717        0.8263452614
 C         -2.7762908889       -0.2746094859        0.4777278832
 C         -2.1831409281        0.5075761915       -0.7100213683
 O         -2.7901189696        0.4498633972       -1.7871259609
 N         -1.0768864300        1.2178618957       -0.5343049069
 C         -0.5620283741        1.9909103505       -1.6578282274
 C          0.9600023059        1.9581623633       -1.7271347247
 C          1.5886716774        2.4906293657       -0.4313631073
 C          0.5608640945        2.5328852376        0.7117335064
 C         -0.3428818789        1.3081789792        0.7182976460
 N          2.7736565514        1.7455620041       -0.0428990753
 C          3.8793142001        2.3821349324        0.4437859652
 N          4.8304164353        1.5966225212        0.8379396925
 C          4.3512025761        0.3300115393        0.6128673875
 C          3.0479602242        0.4004985971        0.0523651044
 C          2.4155172181       -0.8162342994       -0.2554040409
 C          1.2028410433       -1.3044046464       -0.8196377362
 C          1.2718955687       -2.6680379926       -0.8090185931
 N          2.4512565725       -3.0702727863       -0.2660394550
 C          3.1780129319       -1.9746155074        0.0733405319
 N          4.3980279713       -2.0390312283        0.6145201386
 C          4.9800875873       -0.8907478253        0.8749165915
 H         -2.8894962930        0.3846875213        1.3359448967
 H          2.7660544156       -4.0185603062       -0.1481854948
 H         -6.1669225870       -0.6564708630        0.2153937141
 H         -4.0714510011       -0.4621378275       -1.0051461177
 H         -4.5241018330       -2.5547926237        1.0204617679
 H         -4.7371532525       -2.6335878082       -0.7404727896
 H         -2.3080011239       -2.5241476705       -1.0788628909
 H         -2.4585608067       -3.6195232786        0.3028079505
 H         -2.1280707824       -1.7883582596        1.8795660198
 H         -0.9282079590       -1.4600735324        0.6271480537
 H         -0.9895822191        1.5711667484       -2.5705674101
 H         -0.9081593628        3.0251591173       -1.5704645368
 H          1.3105261298        0.9463007561       -1.9140894633
 H          1.2759238049        2.5657806470       -2.5743822941
 H          1.9447675342        3.5132272277       -0.5917739061
 H          1.0866459640        2.5913273591        1.6653120536
 H         -0.0399474784        3.4359582091        0.6085748563
 H         -1.0385821649        1.3874214375        1.5548541918
 H          0.2696831394        0.4142045424        0.8636400968
 H          3.9422908323        3.4520915459        0.4881396778
 H          0.3871393254       -0.7437869161       -1.2258119215
 H          0.5531147149       -3.3825284392       -1.1570745664
 H          5.9699099375       -0.9244178734        1.3048957310
 H         -4.6166791661        0.5208954191        2.5752965695
 H         -6.3119941433        0.0995876423        2.4820490546
 H         -5.1093480406       -1.1738475295        2.4914563684
 H         -6.3443729177        1.7771937800        0.4481642286
 H         -4.5987872359        1.9527326620        0.5311154875
 H         -5.3615715672        1.4010483811       -0.9610916148
  57
        -81.17441105
 C         -5.1667318838        1.1317588306       -0.4181553748
 C         -4.8002743872       -0.3279841265       -0.6588731558
 C         -5.2487896264       -1.2169863220        0.4922148610
 N         -3.3324826535       -0.4438491750       -0.9350578915
 C         -2.8842814684       -1.8033537050       -1.3482985326
 C         -2.0906519210       -2.3277757336       -0.1601691286
 C         -1.3693410840       -1.0717998704        0.3182357668
 C         -2.4267159533        0.0302790140        0.1462326629
 C         -1.8311803498        1.3578589727       -0.3537090423
 O         -2.0683341564        1.6819185819       -1.5227630281
 N         -1.1105487963        2.0980234477        0.4754028974
 C         -0.4940959828        3.3280513533        0.0116083408
 C          1.0098681619        3.3493345049        0.3463237093
 C          1.5543166178        1.9905350844        0.7908588770
 C          0.7207748771        1.4144738491        1.9530201400
 C         -0.7632002612        1.8025217453        1.8463297264
 N          1.6372953623        1.0267209655       -0.2935535659
 C          1.1201208834        1.0598304518       -1.5547625052
 N          1.3581552700       -0.0059310455       -2.2591348481
 C          2.0984905826       -0.8240222847       -1.4378340982
 C          2.2886548659       -0.1755765856       -0.1960252160
 C          3.0389762855       -0.8213406140        0.7891092329
 C          3.5043579350       -0.5916627400        2.1093147806
 C          4.2227440495       -1.6955429556        2.4682981921
 N          4.2287503560       -2.6047859162        1.4528064269
 C          3.5214956394       -2.1040418372        0.4067215749
 N          3.3347706691       -2.7324312869       -0.7581714887
 C          2.6323395729       -2.0963115287       -1.6710392548
 H         -3.0001273866        0.1788697601        1.0600446031
 H          4.6915602382       -3.4980210082        1.4573421985
 H         -5.2923189532       -0.6614209987       -1.5772541351
 H         -3.1272754530        0.2389696088       -1.7039739978
 H         -3.7370776733       -2.4239785237       -1.6103485299
 H         -2.2321139954       -1.7102113932       -2.2167086614
 H         -1.3979753183       -3.1131462239       -0.4496456310
 H         -2.7474926612       -2.7110895605        0.6186359072
 H         -1.0265662527       -1.1607153070        1.3449223274
 H         -0.5103495849       -0.8755908675       -0.3241855076
 H         -0.6750906343        3.4120345606       -1.0603850683
 H         -0.9943950592        4.1705102161        0.4983409324
 H          1.5778709473        3.7068865273       -0.5121198608
 H          1.1908400039        4.0412107009        1.1685047178
 H          2.5850078627        2.1332310911        1.1372090746
 H          0.8370733958        0.3314554284        1.9558853991
 H          1.1156055090        1.7912939360        2.8947695291
 H         -0.9451117907        2.7148697779        2.4203521017
 H         -1.3903135739        1.0141754359        2.2522235556
 H          0.5675606231        1.8869024129       -1.9479436129
 H          3.3430281240        0.2768892109        2.7139012881
 H          4.7346433376       -1.8962098518        3.3884470155
 H          2.4901926589       -2.6021753242       -2.6141306598
 H         -4.7846713239       -0.9361719195        1.4327620424
 H         -6.3226836297       -1.1067436355        0.6126238379
 H         -5.0471204827       -2.2650161315        0.2960463591
 H         -6.2465305509        1.2407837990       -0.4506012458
 H         -4.8282710880        1.4811259850        0.5532165456
 H         -4.7426352693        1.7745008981       -1.1862530496
  57
        -81.17439963
 C         -5.1810535701        1.1615079759       -0.4026301730
 C         -4.8345974118       -0.3032902729       -0.6421409747
 C         -5.2855231359       -1.1834648481        0.5147827938
 N         -3.3704594785       -0.4382347767       -0.9289426793
 C         -2.9425780928       -1.8043289313       -1.3424328114
 C         -2.1396371643       -2.3331674813       -0.1624383053
 C         -1.4003516630       -1.0831148364        0.3039486968
 C         -2.4510411040        0.0271156326        0.1446033531
 C         -1.8488106552        1.3500241961       -0.3587100845
 O         -2.0875932128        1.6741022794       -1.5274984212
 N         -1.1196340219        2.0859804732        0.4666458860
 C         -0.5001471646        3.3130608182       -0.0008718719
 C          1.0037592404        3.3325144361        0.3332103431
 C          1.5469691642        1.9752963882        0.7838856995
 C          0.7111696284        1.4006156351        1.9450594132
 C         -0.7718775365        1.7918644059        1.8378322323
 N          1.6358454618        1.0076838580       -0.2964731205
 C          1.1086574367        1.0244372650       -1.5537252413
 N          1.3597022435       -0.0414243345       -2.2535759728
 C          2.1196865103       -0.8420066687       -1.4329527037
 C          2.3069232838       -0.1832132623       -0.1963215973
 C          3.0739857168       -0.8100625709        0.7880767439
 C          3.5415664851       -0.5653183123        2.1047428677
 C          4.2828757845       -1.6534319202        2.4649789495
 N          4.3012950532       -2.5670857141        1.4534569237
 C          3.5784274887       -2.0852946564        0.4092245761
 N          3.3965152363       -2.7229170523       -0.7514817465
 C          2.6758394040       -2.1053185146       -1.6629128049
 H         -3.0147177531        0.1775798321        1.0641291519
 H          4.7804765466       -3.4516563158        1.4602640209
 H         -5.3376231316       -0.6330000214       -1.5558982541
 H         -3.1624134239        0.2402390874       -1.7007767198
 H         -3.8055366407       -2.4164865608       -1.5907561478
 H         -2.3010841996       -1.7219715469       -2.2197785455
 H         -1.4584920200       -3.1263530561       -0.4577849942
 H         -2.7909933482       -2.7075452352        0.6253408781
 H         -1.0444028674       -1.1730988765        1.3260452349
 H         -0.5484550904       -0.8944480475       -0.3503790796
 H         -0.6809414348        3.3943176400       -1.0731553941
 H         -0.9985178247        4.1582415328        0.4831955996
 H          1.5719933141        3.6845949589       -0.5273698464
 H          1.1864044563        4.0282220514        1.1518012650
 H          2.5764945770        2.1201857222        1.1325186298
 H          0.8257185057        0.3172509643        1.9471140991
 H          1.1058230229        1.7756216034        2.8876046654
 H         -0.9512467542        2.7055267207        2.4106400760
 H         -1.4002235436        1.0054131405        2.2454551917
 H          0.5391974913        1.8397350498       -1.9475492241
 H          3.3655920254        0.3022809819        2.7066912540
 H          4.8033735282       -1.8399629676        3.3832433187
 H          2.5370477834       -2.6190495064       -2.6022833779
 H         -5.0943645263       -2.2341063605        0.3220851033
 H         -4.8144587570       -0.9030508592        1.4519972933
 H         -6.3577450709       -1.0628793516        0.6398847473
 H         -4.7562055192        1.7969179035       -1.1764157530
 H         -6.2597311758        1.2835446381       -0.4256295309
 H         -4.8294591269        1.5094349231        0.5646000433
  57
        -81.17432967
 C         -4.4812686971       -2.7979977886        0.4767673115
 C         -3.7028281656       -1.7633803668       -0.3281041062
 C         -2.2200615752       -1.8762710384        0.0084050304
 N         -4.2264172220       -0.4014992941       -0.0010947705
 C         -5.6290235798       -0.1692685260       -0.4627826160
 C         -5.5501276927        1.0056437674       -1.4325209257
 C         -4.3952660792        1.8240979383       -0.8688378565
 C         -3.3892338355        0.7340072316       -0.4787977408
 C         -2.5237241754        1.1679617743        0.7137581507
 O         -2.8728260303        0.7843929349        1.8349564533
 N         -1.4819097015        1.9602265488        0.5051324813
 C         -0.6558390964        2.3545496500        1.6395176150
 C          0.8207860465        2.4067197634        1.2381141356
 C          1.0894922786        1.2980655776        0.2171023884
 C          0.3336168490        1.6101876265       -1.0884389659
 C         -0.9580643273        2.3836814342       -0.7755450509
 N          2.5002099422        1.1208757356       -0.0346985634
 C          3.4213233031        2.0896736328       -0.3066084182
 N          4.6205070829        1.6418092943       -0.5232362858
 C          4.5194235152        0.2752595721       -0.3990673839
 C          3.1802586886       -0.0634054580       -0.0933031745
 C          2.8471592765       -1.4096460653        0.0696272494
 C          1.7135930339       -2.2125503600        0.3583220634
 C          2.1402118221       -3.5091174262        0.3589721584
 N          3.4737462035       -3.5647965852        0.0846040450
 C          3.9413858068       -2.3023077431       -0.0971561576
 N          5.2113184905       -1.9955683265       -0.3832779498
 C          5.4948631145       -0.7189711703       -0.5317910109
 H         -2.8057577998        0.4127550146       -1.3398288992
 H          4.0369430345       -4.3963447809        0.0281181014
 H         -3.8558011370       -1.9184086996       -1.4002731607
 H         -4.1648776208       -0.3019873451        1.0377002350
 H         -6.0209395445       -1.0610910339       -0.9444538968
 H         -6.2537870329        0.0767561069        0.3938713207
 H         -6.4803888417        1.5649225554       -1.4690189382
 H         -5.3136048788        0.6632518170       -2.4392675045
 H         -3.9885094411        2.5284734564       -1.5883944203
 H         -4.7130135794        2.3759622677        0.0164540131
 H         -0.9839461082        3.3300065364        2.0094563128
 H         -0.8181781812        1.6212412277        2.4328285063
 H          1.0707230338        3.3755126515        0.8073120028
 H          1.4415429601        2.2656763881        2.1222473606
 H          0.7378467027        0.3516782019        0.6380554785
 H          0.9664800047        2.2151507560       -1.7379142990
 H          0.1184154476        0.6789162545       -1.6122515464
 H         -1.6875953550        2.2457683364       -1.5674076251
 H         -0.7450719073        3.4518900011       -0.7016808553
 H          3.1752603350        3.1321413867       -0.3341172682
 H          0.7126766826       -1.8853086844        0.5500995512
 H          1.5809813179       -4.4055010442        0.5384631316
 H          6.5204632217       -0.4717355604       -0.7626130276
 H         -1.9076441992       -2.9089599672       -0.1168717805
 H         -1.5952400520       -1.2672017747       -0.6377748277
 H         -2.0431748149       -1.5959563373        1.0445914697
 H         -5.5504864141       -2.7520376757        0.2975157147
 H         -4.1449702263       -3.7942966285        0.2061118050
 H         -4.3007165426       -2.6610562618        1.5404642303
  57
        -81.17432301
 C         -4.4533423393       -2.8177617143        0.3710728968
 C         -3.6856534181       -1.7458001747       -0.3942525056
 C         -2.2010138744       -1.8604634706       -0.0667304844
 N         -4.2179416614       -0.4018312036       -0.0119534374
 C         -5.6254182169       -0.1630849286       -0.4552045725
 C         -5.5629468295        1.0508518522       -1.3769901823
 C         -4.4093838901        1.8545984563       -0.7899790261
 C         -3.3926029281        0.7572646482       -0.4519633244
 C         -2.5194275240        1.1503299331        0.7490756934
 O         -2.8582915413        0.7240808230        1.8578509301
 N         -1.4824264145        1.9541677111        0.5614078558
 C         -0.6448411227        2.3061556780        1.7010683780
 C          0.8288514613        2.3619736372        1.2887470546
 C          1.0809650928        1.2909104659        0.2237921793
 C          0.3154075259        1.6562456342       -1.0620235542
 C         -0.9691795305        2.4236213766       -0.7075194978
 N          2.4884782897        1.1156471319       -0.0462559276
 C          3.4037615156        2.0879676674       -0.3254293427
 N          4.6024280010        1.6445505843       -0.5533356008
 C          4.5074938549        0.2776404356       -0.4282575501
 C          3.1724096922       -0.0661053192       -0.1101601496
 C          2.8462169814       -1.4136775561        0.0562735820
 C          1.7187851817       -2.2212067152        0.3559508309
 C          2.1507585669       -3.5159855032        0.3532547265
 N          3.4818706218       -3.5663299477        0.0665361140
 C          3.9425265417       -2.3019751194       -0.1202202692
 N          5.2085269134       -1.9903241817       -0.4181233674
 C          5.4856067339       -0.7127059132       -0.5697377038
 H         -2.8149166009        0.4739414554       -1.3300681550
 H          4.0479205101       -4.3955835995        0.0050324704
 H         -3.8409697177       -1.8592962650       -1.4712781924
 H         -4.1499708504       -0.3412167204        1.0293074170
 H         -6.0128678815       -1.0378793158       -0.9705003829
 H         -6.2467340015        0.0422268710        0.4145972755
 H         -6.4974085085        1.6042292210       -1.3831977319
 H         -5.3324918240        0.7513712279       -2.3987216924
 H         -4.0133911353        2.5903326947       -1.4836952694
 H         -4.7236930992        2.3680056712        0.1193634203
 H         -0.9633859469        3.2711119272        2.1052903755
 H         -0.8053228117        1.5482196382        2.4712260441
 H          1.0839192985        3.3443275190        0.8929780431
 H          1.4558117464        2.1824021116        2.1614396859
 H          0.7274334126        0.3314938697        0.6119772851
 H          0.9453487457        2.2819921582       -1.6942920169
 H          0.0903070834        0.7465999266       -1.6186870711
 H         -1.7072646290        2.3200044638       -1.4967171196
 H         -0.7499123544        3.4871029096       -0.5946672855
 H          3.1535391135        3.1295961683       -0.3500359368
 H          0.7181527736       -1.8984756094        0.5567467076
 H          1.5967928666       -4.4145322065        0.5382983478
 H          6.5080012086       -0.4615933623       -0.8103365092
 H         -1.8801298486       -2.8840883722       -0.2369145396
 H         -1.5829461765       -1.2189693452       -0.6874603181
 H         -2.0237761124       -1.6231591270        0.9800931654
 H         -4.2721556614       -2.7206315672        1.4390179704
 H         -5.5232340958       -2.7748260409        0.1952053574
 H         -4.1083928133       -3.7996349252        0.0613865031
  57
        -81.17420581
 C         -5.3097712632       -1.0241155093        0.4887278930
 C         -4.7591649987       -0.0032129664       -0.4961125044
 C         -5.5506856676        0.0176207276       -1.7967336387
 N         -3.3125316873       -0.2334689632       -0.8050911567
 C         -2.9457917813       -1.6020954636       -1.2615680928
 C         -2.1571531443       -2.1980243513       -0.1041873743
 C         -1.3694295897       -0.9926267667        0.4004034985
 C         -2.3840655307        0.1548857703        0.2920423693
 C         -1.7605567494        1.4930167652       -0.1433827342
 O         -2.0228252985        1.8959155408       -1.2823209264
 N         -0.9963705067        2.1608465645        0.7077465684
 C         -0.3528405100        3.3969955375        0.3001506314
 C          1.1617150971        3.3451239781        0.5802260292
 C          1.6686861994        1.9438809265        0.9265402142
 C          0.8539647104        1.3320502362        2.0837169541
 C         -0.6192084444        1.7714366909        2.0470865123
 N          1.6767426222        1.0426965233       -0.2134122017
 C          1.1180516320        1.1690389748       -1.4508682733
 N          1.2864590461        0.1368729779       -2.2220091730
 C          2.0204006377       -0.7558082666       -1.4761532705
 C          2.2810079985       -0.1878568179       -0.2079724547
 C          3.0389949104       -0.9181065646        0.7100300824
 C          3.5608902341       -0.7830000887        2.0221334174
 C          4.2465058570       -1.9325150967        2.2905606332
 N          4.1789684926       -2.7812042677        1.2260357662
 C          3.4549045454       -2.1942965556        0.2378772541
 N          3.2005117884       -2.7470121963       -0.9522808688
 C          2.4926502100       -2.0324683875       -1.8006492546
 H         -2.9496036616        0.2778728335        1.2166264163
 H          4.6066304529       -3.6895909622        1.1620781061
 H         -4.8081647291        0.9952363645       -0.0495756463
 H         -3.0733104419        0.4590804540       -1.5544894438
 H         -3.8325438587       -2.1740507941       -1.5158786685
 H         -2.3109431653       -1.5206645798       -2.1434579626
 H         -1.5070049997       -3.0055838281       -0.4289900409
 H         -2.8209567291       -2.5752701252        0.6718298912
 H         -1.0072621504       -1.1333757684        1.4144170727
 H         -0.5184019831       -0.8094380908       -0.2561790125
 H         -0.5674531151        3.5558718360       -0.7570446777
 H         -0.8055126861        4.2223810168        0.8573879742
 H          1.7129810804        3.7309473482       -0.2768752707
 H          1.3970238463        3.9813141753        1.4330097604
 H          2.7153426565        2.0284094021        1.2428023536
 H          0.9346981019        0.2473798951        2.0255941780
 H          1.2909898270        1.6453477985        3.0300741723
 H         -0.7542370872        2.6524037520        2.6799846434
 H         -1.2614202123        0.9807611377        2.4238630845
 H          0.5881323251        2.0389591969       -1.7769978931
 H          3.4571060078        0.0548706267        2.6803314565
 H          4.7829213464       -2.2054935012        3.1774650965
 H          2.2964454117       -2.4767926025       -2.7648315261
 H         -5.1493134339        0.7606221286       -2.4820179986
 H         -5.5470730645       -0.9505551086       -2.2886030047
 H         -6.5831187798        0.2802827826       -1.5868230781
 H         -5.3748388722       -2.0141998694        0.0487697366
 H         -4.7143077802       -1.0785775272        1.3948996959
 H         -6.3145421993       -0.7249545422        0.7724823599
