42
Energy -40.85260888544796 kcal/mol Converged!
  C   -0.191760245  -3.440521797   0.001391209
  C   -0.021151151  -1.913174256   0.000729704
  C   -0.639925354  -1.302932544  -1.277879639
  C   -2.176963341  -1.370383200  -1.248298101
  N   -2.785386087  -0.833870844   0.000479498
  C   -2.176789643  -1.369234911   1.249609135
  C   -0.639677517  -1.302038118   1.279034060
  S   -3.271699111   0.809916424  -0.000392066
  O   -2.786677192   1.432245257   1.238328628
  O   -2.785291412   1.431399605  -1.238626710
  C   -4.979438947   0.721178518  -0.000875855
  N    1.462698334  -1.594833313   0.000174769
  C    2.506595136  -2.561380140  -0.000308288
  N    3.728523492  -2.000753754  -0.000892114
  C    3.513003983  -0.615828674  -0.000795416
  C    2.097597483  -0.341154547  -0.000074572
  C    1.694229316   1.014872549   0.000238715
  C    0.484998122   1.773431283   0.000708569
  C    0.823191177   3.122285706   0.001066540
  N    2.217523635   3.256668513   0.001009752
  C    2.774941432   1.976801331   0.000121412
  N    4.138983841   1.710962975  -0.000567180
  C    4.488205552   0.425201575  -0.001062834
  H   -0.317927250  -0.241965354  -1.400730020
  H   -0.275492261  -1.865659869  -2.174698785
  H   -2.582017069  -0.801005788  -2.128895348
  H   -2.510429278  -2.440750281  -1.334237068
  H   -2.581702134  -0.799060291   2.129745485
  H   -2.510239655  -2.439496054   1.336645994
  H   -0.275342327  -1.864540771   2.176056406
  H   -0.317265820  -0.241140015   1.401486011
  H    2.332585188  -3.634616766  -0.000101665
  H   -0.520137035   1.397452153   0.000600066
  H    0.170798651   3.986010339   0.001678963
  H    5.560374796   0.177205984  -0.001832428
  H    2.736699816   4.127345464  -0.000370893
  H    0.250953020  -3.901048388  -0.911442356
  H    0.251788883  -3.900364868   0.914173234
  H   -1.280637607  -3.691712809   0.002066550
  H   -5.456970240   1.739773008   0.001571567
  H   -5.385794935   0.180287428   0.897510373
  H   -5.385676248   0.184429240  -0.901745305
