  57
        -81.18377551
 C         -4.8187434870       -2.9905236675        0.1873132451
 C         -3.8200777228       -2.0525775176       -0.4807709207
 C         -2.3991872001       -2.4371404136       -0.0852357426
 N         -4.1049719837       -0.6479580896       -0.0698191062
 C         -5.4941923632       -0.2005645122       -0.3417066531
 C         -5.3853442103        1.3145954724       -0.3887498609
 C         -4.0829769422        1.5115716001       -1.1594023430
 C         -3.1822868026        0.3869752182       -0.6183673512
 C         -2.3398196998        0.8728956545        0.5792936838
 O         -2.6586337709        0.4666484340        1.7005563659
 N         -1.3543038324        1.7333816056        0.3619483763
 C         -0.8413160823        2.1612698145       -0.9230675707
 C          0.5870320770        1.6426951919       -1.1049441122
 C          1.4764342598        2.1178197945        0.0500595940
 C          0.8608283480        1.7628541063        1.4084364731
 C         -0.5836992068        2.2535554641        1.4780934578
 N          2.8070709597        1.5654746801       -0.0732922767
 C          3.9438750489        2.2972649778       -0.2455272297
 N          5.0274526157        1.5930246605       -0.3558853217
 C          4.6104152833        0.2869828921       -0.2532893855
 C          3.2053375302        0.2532407147       -0.0710120916
 C          2.5874659733       -0.9967423390        0.0583551627
 C          1.2950796969       -1.5526188594        0.2574253113
 C          1.4429746723       -2.9091305254        0.2827091515
 N          2.7515010615       -3.2393516530        0.1077044457
 C          3.4807054182       -2.1013262999       -0.0271671236
 N          4.8055195890       -2.0765835671       -0.2042001550
 C          5.3629071601       -0.8906000831       -0.3127442933
 H         -2.5531223950       -0.0486929636       -1.3925108369
 H          3.1378364214       -4.1680104202        0.0901470153
 H         -3.9359506364       -2.1028005558       -1.5679655202
 H         -3.9210129391       -0.5734393535        0.9628166321
 H         -5.7998335468       -0.5899450264       -1.3138545809
 H         -6.1731491390       -0.5555151436        0.4286790570
 H         -5.3015286065        1.7251741532        0.6176748201
 H         -6.2368456192        1.7740091375       -0.8817087355
 H         -4.2530235064        1.3765531588       -2.2267009938
 H         -3.6577967775        2.4977727970       -0.9960908394
 H         -1.4670608736        1.8089208217       -1.7375562752
 H         -0.8343188735        3.2551575226       -0.9383472744
 H          0.5915792876        0.5541928793       -1.1402443012
 H          0.9891086202        2.0116232699       -2.0486802483
 H          1.5907108704        3.2062014068       -0.0131706693
 H          0.8964005819        0.6854411658        1.5609237322
 H          1.4385295026        2.2290116925        2.2069517620
 H         -0.6099054508        3.3458259200        1.4347701550
 H         -1.0517961735        1.9219503488        2.4054534976
 H          3.9292489491        3.3690705786       -0.2853918175
 H          0.3697027200       -1.0320220925        0.3936460234
 H          0.6982541468       -3.6677081560        0.4168333976
 H          6.4333526106       -0.8633443969       -0.4526738784
 H         -2.2529775218       -3.4978181355       -0.2640400809
 H         -1.6464246747       -1.9070634892       -0.6602300544
 H         -2.2313826289       -2.2486615082        0.9728921423
 H         -5.8358531975       -2.8133613648       -0.1460664567
 H         -4.5679297603       -4.0170125474       -0.0625116781
 H         -4.7741228869       -2.8904035076        1.2689375133
