  57
        -81.18377551
 C         -4.8187434870       -2.9905236675        0.1873132451
 C         -3.8200777228       -2.0525775176       -0.4807709207
 C         -2.3991872001       -2.4371404136       -0.0852357426
 N         -4.1049719837       -0.6479580896       -0.0698191062
 C         -5.4941923632       -0.2005645122       -0.3417066531
 C         -5.3853442103        1.3145954724       -0.3887498609
 C         -4.0829769422        1.5115716001       -1.1594023430
 C         -3.1822868026        0.3869752182       -0.6183673512
 C         -2.3398196998        0.8728956545        0.5792936838
 O         -2.6586337709        0.4666484340        1.7005563659
 N         -1.3543038324        1.7333816056        0.3619483763
 C         -0.8413160823        2.1612698145       -0.9230675707
 C          0.5870320770        1.6426951919       -1.1049441122
 C          1.4764342598        2.1178197945        0.0500595940
 C          0.8608283480        1.7628541063        1.4084364731
 C         -0.5836992068        2.2535554641        1.4780934578
 N          2.8070709597        1.5654746801       -0.0732922767
 C          3.9438750489        2.2972649778       -0.2455272297
 N          5.0274526157        1.5930246605       -0.3558853217
 C          4.6104152833        0.2869828921       -0.2532893855
 C          3.2053375302        0.2532407147       -0.0710120916
 C          2.5874659733       -0.9967423390        0.0583551627
 C          1.2950796969       -1.5526188594        0.2574253113
 C          1.4429746723       -2.9091305254        0.2827091515
 N          2.7515010615       -3.2393516530        0.1077044457
 C          3.4807054182       -2.1013262999       -0.0271671236
 N          4.8055195890       -2.0765835671       -0.2042001550
 C          5.3629071601       -0.8906000831       -0.3127442933
 H         -2.5531223950       -0.0486929636       -1.3925108369
 H          3.1378364214       -4.1680104202        0.0901470153
 H         -3.9359506364       -2.1028005558       -1.5679655202
 H         -3.9210129391       -0.5734393535        0.9628166321
 H         -5.7998335468       -0.5899450264       -1.3138545809
 H         -6.1731491390       -0.5555151436        0.4286790570
 H         -5.3015286065        1.7251741532        0.6176748201
 H         -6.2368456192        1.7740091375       -0.8817087355
 H         -4.2530235064        1.3765531588       -2.2267009938
 H         -3.6577967775        2.4977727970       -0.9960908394
 H         -1.4670608736        1.8089208217       -1.7375562752
 H         -0.8343188735        3.2551575226       -0.9383472744
 H          0.5915792876        0.5541928793       -1.1402443012
 H          0.9891086202        2.0116232699       -2.0486802483
 H          1.5907108704        3.2062014068       -0.0131706693
 H          0.8964005819        0.6854411658        1.5609237322
 H          1.4385295026        2.2290116925        2.2069517620
 H         -0.6099054508        3.3458259200        1.4347701550
 H         -1.0517961735        1.9219503488        2.4054534976
 H          3.9292489491        3.3690705786       -0.2853918175
 H          0.3697027200       -1.0320220925        0.3936460234
 H          0.6982541468       -3.6677081560        0.4168333976
 H          6.4333526106       -0.8633443969       -0.4526738784
 H         -2.2529775218       -3.4978181355       -0.2640400809
 H         -1.6464246747       -1.9070634892       -0.6602300544
 H         -2.2313826289       -2.2486615082        0.9728921423
 H         -5.8358531975       -2.8133613648       -0.1460664567
 H         -4.5679297603       -4.0170125474       -0.0625116781
 H         -4.7741228869       -2.8904035076        1.2689375133
  57
        -81.18316788
 C         -3.2840150685       -2.5550082554       -1.6424653893
 C         -3.0493933507       -2.1245061829       -0.2004302424
 C         -3.5881516191       -3.1520573420        0.7854084727
 N         -3.6563727809       -0.7919049634        0.0980292199
 C         -5.1001395911       -0.6356836098       -0.1979650497
 C         -5.2794847186        0.8728863440       -0.2679163087
 C         -4.0330079799        1.3045829530       -1.0392950695
 C         -2.9387396529        0.3722835179       -0.4903899221
 C         -2.1698818346        1.0164586588        0.6812551293
 O         -2.4141564236        0.6015635703        1.8183181831
 N         -1.3178767205        1.9991262754        0.4208222004
 C         -0.8540080053        2.4067978080       -0.8890922569
 C          0.5492268297        1.8436012839       -1.1229555365
 C          1.5007062786        2.2845544705       -0.0017540690
 C          0.9154328134        2.0297249300        1.3943952567
 C         -0.5140440914        2.5619999756        1.4908525476
 N          2.7718561324        1.6085007573       -0.1413919053
 C          3.9698806047        2.2180343151       -0.3639135009
 N          4.9743336724        1.4055369902       -0.4800887801
 C          4.4325175110        0.1511301292       -0.3283461323
 C          3.0370748778        0.2633880850       -0.1086755092
 C          2.3013940582       -0.9145255926        0.0763331783
 C          0.9667903932       -1.3332657231        0.3316060143
 C          0.9818996004       -2.6969413752        0.3967603950
 N          2.2445536439       -3.1600195052        0.1909370526
 C          3.0774073206       -2.1045686227       -0.0012823013
 N          4.3918735566       -2.2177974315       -0.2176141033
 C          5.0616346439       -1.0975070182       -0.3744784751
 H         -2.2455459557        0.0327883391       -1.2592035539
 H          2.5375531862       -4.1223850320        0.1946273575
 H         -1.9748121245       -2.0051261439       -0.0283402121
 H         -3.5153898920       -0.6247190518        1.1266538686
 H         -5.3166379332       -1.0843541899       -1.1657830774
 H         -5.7034707942       -1.1080733580        0.5726856142
 H         -5.2803284052        1.3077865533        0.7318768779
 H         -6.1991454538        1.1570731911       -0.7705473263
 H         -4.1734351386        1.1337014268       -2.1057723118
 H         -3.7999684255        2.3541071269       -0.8812888166
 H         -1.5295846495        2.0750765906       -1.6721839879
 H         -0.8185189264        3.4990391100       -0.9050211806
 H          0.5157972115        0.7554027733       -1.1580343607
 H          0.9317373866        2.1985257894       -2.0800221743
 H          1.7053556534        3.3556966857       -0.1091734899
 H          0.9239535468        0.9614840077        1.6074214265
 H          1.5369399062        2.5194347246        2.1444010856
 H         -0.5231724635        3.6499511510        1.3960346235
 H         -0.9574206226        2.2809390182        2.4465932572
 H          4.0597449251        3.2844382561       -0.4360489148
 H          0.1059697292       -0.7145611707        0.4853655748
 H          0.1759698543       -3.3785892300        0.5830675242
 H          6.1248517228       -1.1814613538       -0.5435494650
 H         -4.6520510356       -3.3174295698        0.6431232790
 H         -3.0821766150       -4.1003554525        0.6311795771
 H         -3.4094856759       -2.8399152212        1.8116529319
 H         -3.0944712704       -1.7501184390       -2.3463886520
 H         -2.6031419399       -3.3670847809       -1.8799019725
 H         -4.2945208108       -2.9250358954       -1.7882338633
  57
        -81.18110090
 C         -2.4735464172       -2.4649202556        0.2951624769
 C         -3.8821870141       -2.0566819249       -0.1200215699
 C         -4.1386039210       -2.3508172575       -1.5910573703
 N         -4.1194227622       -0.6198803686        0.2274050624
 C         -5.5180315888       -0.1546438010        0.0133506230
 C         -5.4433511009        0.7449961822       -1.2115180186
 C         -4.1105726772        1.4597693304       -1.0072624033
 C         -3.2049830460        0.3714876231       -0.4027985309
 C         -2.3276377922        0.9184955199        0.7407151952
 O         -2.6148486421        0.5664527891        1.8901340471
 N         -1.3475712720        1.7648631441        0.4583487490
 C         -0.8724456851        2.1394525185       -0.8565835756
 C          0.5496261402        1.6128667127       -1.0629340670
 C          1.4753276283        2.1174106068        0.0500240694
 C          0.8951188264        1.8167931251        1.4367740901
 C         -0.5417508649        2.3254602830        1.5292082318
 N          2.7948494885        1.5430593738       -0.0904121349
 C          3.9376444729        2.2523751583       -0.3091864862
 N          5.0078743254        1.5288426649       -0.4258768102
 C          4.5741808890        0.2325189996       -0.2776741504
 C          3.1736315750        0.2254194428       -0.0608642639
 C          2.5400993195       -1.0108221120        0.1168683172
 C          1.2446668893       -1.5409232193        0.3623587522
 C          1.3725313726       -2.8986202838        0.4181515407
 N          2.6709615757       -3.2537626577        0.2184197899
 C          3.4139144259       -2.1312066227        0.0370444205
 N          4.7341803087       -2.1319594729       -0.1729403234
 C          5.3067944532       -0.9581213693       -0.3250301057
 H         -2.5995961133       -0.1227567275       -1.1606425931
 H          3.0424524126       -4.1885831972        0.2137988309
 H         -4.5983916950       -2.6198170674        0.4855967921
 H         -3.8762654507       -0.5204725531        1.2434669308
 H         -6.1883341037       -1.0012914921       -0.1086811532
 H         -5.8320161061        0.4231565072        0.8827123690
 H         -6.2792263058        1.4371701219       -1.2583607340
 H         -5.4262501736        0.1619436298       -2.1302848982
 H         -3.7179758319        1.8581808747       -1.9382003182
 H         -4.2292348444        2.2830234284       -0.3024970380
 H         -1.5218085854        1.7511953686       -1.6345145687
 H         -0.8706028316        3.2313259399       -0.9180417342
 H          0.5505234526        0.5239262231       -1.0661193706
 H          0.9254549873        1.9521181202       -2.0284849341
 H          1.6003987431        3.2013764011       -0.0540452288
 H          0.9238864586        0.7448170812        1.6260144448
 H          1.5003956225        2.3039211201        2.2016021512
 H         -0.5600647843        3.4149440780        1.4398989576
 H         -0.9849666233        2.0376699442        2.4830867641
 H          3.9372212928        3.3227419404       -0.3793189184
 H          0.3314147756       -1.0020845179        0.5100570847
 H          0.6204604468       -3.6420145057        0.5907586122
 H          6.3738365873       -0.9520515508       -0.4908031460
 H         -3.4797623838       -1.7844727411       -2.2422996920
 H         -3.9470700447       -3.4050923651       -1.7693188150
 H         -5.1688106042       -2.1545966744       -1.8700553219
 H         -1.7223151227       -2.0900782382       -0.3941376096
 H         -2.2401671755       -2.1136257868        1.2978651161
 H         -2.4025130519       -3.5484155808        0.2978321697
  57
        -81.18022907
 C         -6.6659209819       -0.8936283506        1.1320730304
 C         -5.2251203613       -1.0389295596        0.6576253994
 C         -4.2957718152       -1.2042972268        1.8544913893
 N         -4.8300234701        0.1650328020       -0.1280380462
 C         -5.7284555517        0.4954683147       -1.2604562999
 C         -4.8650944850        1.3693511110       -2.1558867463
 C         -3.5232522928        0.6423850742       -2.1092994907
 C         -3.4357009481        0.1481615648       -0.6533254550
 C         -2.6450558098        1.1312745587        0.2315830606
 O         -3.2896207861        1.8520879493        0.9989656099
 N         -1.3264649414        1.1810670749        0.1087438643
 C         -0.5490299156        2.0827769497        0.9377797447
 C          0.3652770409        1.2952969663        1.8808830537
 C          1.1960520326        0.2130712375        1.1831922486
 C          0.3145338980       -0.6007534487        0.2222984672
 C         -0.4920415254        0.3154651884       -0.6977799242
 N          2.3591905649        0.7305784363        0.4859798795
 C          2.6889078871        2.0038422303        0.1284091163
 N          3.8173162540        2.1091404436       -0.5069207765
 C          4.3034390972        0.8257600606       -0.5893840898
 C          3.3918160712       -0.0518024177        0.0414550412
 C          3.7019209846       -1.4122477472        0.1019036658
 C          3.1582405114       -2.6186400114        0.6146081329
 C          4.0439884693       -3.6100557567        0.3050119886
 N          5.1076941823       -3.0956150648       -0.3744905543
 C          4.9369352908       -1.7549609514       -0.5140129397
 N          5.8008384123       -0.9367696592       -1.1243545821
 C          5.4859207279        0.3405163255       -1.1587640878
 H         -3.0278388349       -0.8589920741       -0.5858796909
 H          5.9028097472       -3.6097962029       -0.7139179172
 H         -5.1416513902       -1.9027104889       -0.0094233280
 H         -4.8019521482        0.9811617472        0.5333749788
 H         -5.9963745060       -0.4297190316       -1.7726952783
 H         -6.6258460581        0.9982703568       -0.9106877831
 H         -4.7723888941        2.3721765104       -1.7385023764
 H         -5.2619398217        1.4483233872       -3.1635648936
 H         -3.5299727990       -0.2043363875       -2.7942744858
 H         -2.6959352522        1.2960116436       -2.3731426777
 H          0.0241412779        2.7378541476        0.2781077917
 H         -1.2389483412        2.6942024380        1.5216028328
 H          1.0202638091        1.9873227207        2.4095744459
 H         -0.2571746063        0.7955814651        2.6247415365
 H          1.5921250068       -0.4629350618        1.9513737841
 H          0.9382666250       -1.2611006582       -0.3787483329
 H         -0.3635232322       -1.2127461383        0.8176590383
 H         -1.0838165827       -0.2737178549       -1.3922017638
 H          0.1908325101        0.9443541383       -1.2775830603
 H          2.0913842717        2.8588756929        0.3673892852
 H          2.2414005622       -2.7427484788        1.1532585786
 H          3.9886538388       -4.6576430642        0.5247870166
 H          6.1876933246        1.0012998964       -1.6456908045
 H         -4.6339706591       -2.0390215935        2.4607148977
 H         -3.2700299854       -1.4059546778        1.5610635544
 H         -4.3095955118       -0.3102771646        2.4739258630
 H         -7.3704273911       -0.8837613671        0.3070026535
 H         -6.9191745889       -1.7363625767        1.7682988642
 H         -6.7877650404        0.0139283390        1.7180252852
  57
        -81.18004538
 C         -7.0313421923       -0.7359273348       -1.5298500321
 C         -5.6980684510       -0.0230723604       -1.7215771317
 C         -4.7983792686       -0.8388940947       -2.6427295961
 N         -5.0334173492        0.1665337469       -0.4006266500
 C         -5.8620469719        0.8489673136        0.6225037177
 C         -4.8395222918        1.3644016300        1.6217975135
 C         -3.7351431468        1.8842386486        0.7048348838
 C         -3.7170467202        0.8634828428       -0.4480389152
 C         -2.6561585857       -0.2315529675       -0.2221204896
 O         -3.0539872440       -1.3421764116        0.1417094955
 N         -1.3790792151        0.0615172921       -0.4220918061
 C         -0.8251966334        1.3284337932       -0.8498450297
 C          0.1647774503        1.8706987308        0.1902791531
 C          1.2073363976        0.8519371777        0.6604718014
 C          0.5335985228       -0.4939288604        0.9709254044
 C         -0.3558457150       -0.9404101031       -0.1840166406
 N          2.3028551945        0.6650706052       -0.2730701364
 C          2.4256847434        1.0188846123       -1.5834741589
 N          3.5500333634        0.6693441420       -2.1326652365
 C          4.2536133623        0.0357942385       -1.1361057294
 C          3.4753309480        0.0330523031        0.0446815411
 C          4.0118950234       -0.5378800284        1.2007581031
 C          3.6576983722       -0.7560644357        2.5574105337
 C          4.7148678624       -1.3926867603        3.1406404303
 N          5.7091154630       -1.5868318165        2.2284469442
 C          5.3174469859       -1.0753833921        1.0321237373
 N          6.0583024491       -1.0893475136       -0.0810498862
 C          5.5299130233       -0.5371176402       -1.1524972765
 H         -3.5876870301        1.3399087095       -1.4185403531
 H          6.5961744885       -2.0293657801        2.3993582013
 H         -5.8692975349        0.9720859911       -2.1440243926
 H         -4.7619698780       -0.7835588634       -0.0430663025
 H         -6.3853267592        1.6799162294        0.1472981269
 H         -6.5801226421        0.1621958993        1.0619222847
 H         -4.4698069300        0.5495549283        2.2444894678
 H         -5.2457080745        2.1380798006        2.2664410365
 H         -3.9913867659        2.8733227919        0.3281517535
 H         -2.7784992100        1.9438205279        1.2159922957
 H         -0.3218953350        1.1577962330       -1.8053493850
 H         -1.6069831916        2.0683129285       -0.9992391956
 H          0.6629553787        2.7508789151       -0.2152654435
 H         -0.3906045762        2.1832876499        1.0754144726
 H          1.6689049344        1.2311188402        1.5807842141
 H          1.2905032665       -1.2543373551        1.1588319537
 H         -0.0714622630       -0.3847381635        1.8715724220
 H         -0.8447138931       -1.8860482754        0.0522257201
 H          0.2383866971       -1.0638299727       -1.0945085068
 H          1.6802487499        1.5653013563       -2.1224471286
 H          2.7468400330       -0.4767726316        3.0461044060
 H          4.8277852025       -1.7235376732        4.1538737766
 H          6.1320677136       -0.5434294334       -2.0489180388
 H         -3.8710921822       -0.3276597928       -2.8838486369
 H         -4.5553398832       -1.7970072474       -2.1884238055
 H         -5.3183380858       -1.0319856516       -3.5760033196
 H         -6.8889566641       -1.6868692722       -1.0227508047
 H         -7.7416338044       -0.1351011913       -0.9715832080
 H         -7.4692287667       -0.9407932398       -2.5021554399
  57
        -81.17980059
 C         -2.6130483091       -2.8983934878        0.1937986791
 C         -2.7449701757       -1.7323490160        1.1648740152
 C         -3.6267255934       -2.0925676376        2.3519233646
 N         -3.2913313478       -0.5065875334        0.5038681275
 C         -4.5808240739       -0.6590848291       -0.2126600105
 C         -4.5892752619        0.5148450947       -1.1796646157
 C         -3.1433149355        0.5276146098       -1.6722705940
 C         -2.3429123754        0.1947620811       -0.4035476708
 C         -1.9043177396        1.4617316991        0.3535641866
 O         -2.5000504473        1.7341798726        1.4017784996
 N         -0.9271504485        2.2077920587       -0.1448274930
 C         -0.1588129371        1.9155098566       -1.3410357586
 C          1.3075619602        2.3267234479       -1.1465717511
 C          1.7230679808        2.1521697256        0.3215747291
 C          0.9311864645        3.1536776809        1.1693907746
 C         -0.4712237761        3.3834454605        0.5774133909
 N          1.4981373609        0.7757819144        0.7293368293
 C          0.5326494774        0.2644585732        1.5420391387
 N          0.4786892974       -1.0350938212        1.5572269795
 C          1.4806772040       -1.4483071753        0.7109206868
 C          2.1379208915       -0.3096068599        0.1906213219
 C          3.2190757449       -0.4978242997       -0.6725366898
 C          4.1722729055        0.2739593302       -1.3849157509
 C          4.9781313566       -0.6101837537       -2.0428889459
 N          4.5818684155       -1.8890759534       -1.7879951301
 C          3.5149658252       -1.8624758461       -0.9477738047
 N          2.8846514301       -2.9439607594       -0.4801073356
 C          1.8800823440       -2.7378442978        0.3438958819
 H         -1.4817024326       -0.4454120458       -0.5951103820
 H          5.0125454892       -2.7261268265       -2.1429299503
 H         -1.7471966925       -1.4622755157        1.5305028574
 H         -3.4234346853        0.2075003392        1.2627052108
 H         -4.5721030124       -1.5977294879       -0.7634117706
 H         -5.4111085614       -0.6492615006        0.4884516378
 H         -4.8229887618        1.4428096255       -0.6572514248
 H         -5.3034114138        0.3798675704       -1.9864909838
 H         -2.9929337432       -0.2447765692       -2.4250844284
 H         -2.8625471918        1.4866462569       -2.0979434780
 H         -0.2099048679        0.8504090984       -1.5618683849
 H         -0.5788405307        2.4613531531       -2.1914110044
 H          1.9314399556        1.7177495548       -1.7984313523
 H          1.4609619900        3.3711601698       -1.4135006433
 H          2.7964507200        2.3427687128        0.4264733522
 H          0.8732394944        2.8093056743        2.2009373766
 H          1.4647658344        4.1028635835        1.1773447361
 H         -0.4538379948        4.2190840725       -0.1248281079
 H         -1.1928128881        3.6036503917        1.3641462670
 H         -0.1204803564        0.8685502771        2.1381424305
 H          4.2687362369        1.3407705204       -1.3987959068
 H          5.8155743109       -0.4109694666       -2.6816830007
 H          1.3818738244       -3.6146888303        0.7285984496
 H         -3.7222564565       -1.2529669523        3.0359615317
 H         -4.6156559047       -2.4081782413        2.0315191437
 H         -3.1721721513       -2.9142681798        2.8964656162
 H         -1.9584634888       -3.6419865115        0.6386575115
 H         -3.5701110272       -3.3751236755        0.0026005339
 H         -2.1669951705       -2.5958110899       -0.7492150850
  57
        -81.17895601
 C         -6.2236141871        0.9750761980       -2.3329169632
 C         -5.6205806902       -0.2852866687       -1.7263714086
 C         -6.6628444586       -1.3848756363       -1.5747154684
 N         -4.9832513193       -0.0260277927       -0.4001977940
 C         -5.8319389875        0.6097177851        0.6343470594
 C         -4.8171368482        1.1527379029        1.6278835617
 C         -3.7452686719        1.7276912346        0.7029530144
 C         -3.6926087693        0.7140866959       -0.4539246604
 C         -2.5992584042       -0.3526495853       -0.2425859647
 O         -2.9683830671       -1.4848143774        0.0876763108
 N         -1.3306882541       -0.0176405903       -0.4240855687
 C         -0.8127705285        1.2725101171       -0.8278479770
 C          0.1614880416        1.8236382064        0.2223029140
 C          1.2329594488        0.8264278723        0.6731275377
 C          0.5955535920       -0.5416450242        0.9623243768
 C         -0.2797153916       -0.9941387288       -0.2010213071
 N          2.3301299275        0.6839692219       -0.2663188035
 C          2.4409131592        1.0676931311       -1.5694635954
 N          3.5695573149        0.7516188055       -2.1299782165
 C          4.2892337518        0.1110461143       -1.1495617023
 C          3.5162497936        0.0688772672        0.0339916266
 C          4.0697190810       -0.5136694406        1.1763110177
 C          3.7273228253       -0.7640023691        2.5304768548
 C          4.8000039282       -1.3902924008        3.0963650885
 N          5.7927493789       -1.5480993369        2.1756003362
 C          5.3847734400       -1.0218308444        0.9912689148
 N          6.1204261422       -0.9992456982       -0.1250921257
 C          5.5763195168       -0.4364184473       -1.1830099278
 H         -3.5741210524        1.1863795154       -1.4283073967
 H          6.6894982246       -1.9756501905        2.3333913275
 H         -4.8165775946       -0.6533964700       -2.3718461680
 H         -4.6686433185       -0.9620722719       -0.0378253722
 H         -6.3914707185        1.4274934787        0.1836545035
 H         -6.5175451186       -0.1142676721        1.0665666163
 H         -4.4060923755        0.3467351703        2.2362167612
 H         -5.2441777844        1.9026461228        2.2870738372
 H         -4.0513458671        2.7055077125        0.3338894274
 H         -2.7885447999        1.8292064867        1.2069205733
 H         -0.3047755649        1.1333345438       -1.7858948310
 H         -1.6155945138        1.9919641322       -0.9649813421
 H          0.6337106853        2.7252961674       -0.1667638455
 H         -0.4018608860        2.1031325600        1.1134477540
 H          1.6865721267        1.2024567104        1.5986743160
 H          1.3720608806       -1.2845477262        1.1395865751
 H         -0.0132954375       -0.4624579383        1.8635575241
 H         -0.7417435230       -1.9571375146        0.0186792689
 H          0.3188009143       -1.0858470324       -1.1124596861
 H          1.6834506123        1.6117152704       -2.0938982841
 H          2.8141601212       -0.5112337636        3.0292116957
 H          4.9248785908       -1.7376066795        4.1026596291
 H          6.1746208905       -0.4124911061       -2.0817234915
 H         -7.0499248139       -1.6519256072       -2.5534702622
 H         -6.2267703061       -2.2781115693       -1.1335916880
 H         -7.4990117431       -1.0566370784       -0.9642935190
 H         -5.5507622061        1.8250149137       -2.2671439862
 H         -6.4249997265        0.7941212302       -3.3847332692
 H         -7.1677629544        1.2307843479       -1.8611736830
  57
        -81.17892412
 C         -5.3967162571       -2.1726773397        0.2421437422
 C         -5.1734912924       -0.8465819387        0.9574898711
 C         -6.4057366862       -0.4234486493        1.7453173026
 N         -4.7921180945        0.2479988956        0.0145044784
 C         -5.7118214229        0.5017053182       -1.1188423739
 C         -4.8466505552        1.2776027683       -2.0996376302
 C         -3.5209757696        0.5215789103       -2.0197723357
 C         -3.4086033064        0.1592299226       -0.5280610189
 C         -2.5906296744        1.2019453736        0.2598121626
 O         -3.2131333158        1.9746773075        0.9959149652
 N         -1.2768176144        1.2392300182        0.0952242785
 C         -0.4729794205        2.1928106369        0.8366151322
 C          0.4514148946        1.4688815719        1.8199923379
 C          1.2576250684        0.3277662018        1.1906088999
 C          0.3508217910       -0.5456725673        0.3087575574
 C         -0.4669121034        0.3070925572       -0.6611712657
 N          2.4133618726        0.7788554727        0.4371406498
 C          2.7530049003        2.0192977256       -0.0143742641
 N          3.8716418429        2.0639142994       -0.6736290621
 C          4.3404065072        0.7715465958       -0.6727725841
 C          3.4286668038       -0.0468189678        0.0328899820
 C          3.7227893199       -1.4037281640        0.1843197805
 C          3.1725450482       -2.5635288369        0.7891400325
 C          4.0401846903       -3.5863428649        0.5359231506
 N          5.0990309035       -3.1355603840       -0.1945552833
 C          4.9429033403       -1.8058098954       -0.4254776247
 N          5.8073445987       -1.0442054730       -1.1044686084
 C          5.5076305882        0.2316535241       -1.2241445025
 H         -3.0065758648       -0.8397009616       -0.3642410043
 H          5.8818444507       -3.6834614501       -0.5090597029
 H         -4.3324043275       -0.9422694699        1.6514263692
 H         -4.7324273822        1.1260799731        0.5903127326
 H         -6.0123925961       -0.4495865658       -1.5544351400
 H         -6.5888004854        1.0507998835       -0.7865237578
 H         -4.7194104305        2.3087748131       -1.7691590183
 H         -5.2620065721        1.2839771836       -3.1029620042
 H         -3.5674380992       -0.3830173598       -2.6246611023
 H         -2.6866908380        1.1274633749       -2.3629131461
 H          0.0942930158        2.7864402663        0.1165539161
 H         -1.1437290017        2.8567415538        1.3842993487
 H          1.1233559306        2.1913045343        2.2825665744
 H         -0.1617504823        1.0344026253        2.6109776320
 H          1.6607680605       -0.2935219350        2.0002965991
 H          0.9575274201       -1.2536277080       -0.2543505819
 H         -0.3207865892       -1.1059471241        0.9595608562
 H         -1.0783419446       -0.3275975455       -1.2958102234
 H          0.2081191741        0.8842587871       -1.3006058196
 H          2.1703859602        2.8972628845        0.1726273476
 H          2.2634590712       -2.6368860922        1.3498350401
 H          3.9749573085       -4.6150774786        0.8296532830
 H          6.2099661017        0.8475897711       -1.7659608901
 H         -7.2777579119       -0.3424593831        1.1030777673
 H         -6.6207624692       -1.1681508980        2.5057963415
 H         -6.2416849891        0.5276440275        2.2463510624
 H         -5.4000399272       -2.9707687112        0.9787924573
 H         -6.3574628329       -2.1944928235       -0.2635744405
 H         -4.6119185218       -2.3891075645       -0.4766268365
  57
        -81.17863413
 C         -5.0132086396       -2.4150031916        1.3348282717
 C         -3.7594919882       -1.9040216972        0.6331233898
 C         -2.5700060528       -1.9782032997        1.5821217727
 N         -3.9763710461       -0.4966278159        0.1874832772
 C         -5.1963625221       -0.3051672063       -0.6373790628
 C         -4.9155283729        0.9688187876       -1.4149158197
 C         -3.4484697961        0.7866672476       -1.7917592565
 C         -2.8380446827        0.1464734120       -0.5329401041
 C         -2.2754746881        1.2109301683        0.4271919083
 O         -2.8972181504        1.4193578902        1.4748417163
 N         -1.1781851484        1.8752241115        0.0832827523
 C         -0.3822103559        1.6185714619       -1.1073014488
 C          1.0345662136        2.1757476711       -0.9469093349
 C          1.5743049729        1.8830469020        0.4586605911
 C          0.7075743201        2.6028492761        1.5021153209
 C         -0.6822625020        2.9348168306        0.9446469553
 N          1.6133304374        0.4480457559        0.6636884277
 C          0.6795890430       -0.3599467271        1.2370470820
 N          0.9415012985       -1.6304817033        1.1472154916
 C          2.1348018432       -1.7032998290        0.4676379514
 C          2.5623005209       -0.3926808951        0.1505411006
 C          3.7533173289       -0.2261479302       -0.5577088536
 C          4.5478377380        0.8195828853       -1.0928263019
 C          5.6264443095        0.2271793372       -1.6838368897
 N          5.5507884981       -1.1276806724       -1.5526922281
 C          4.4191876816       -1.4433716231       -0.8703263114
 N          4.0296769106       -2.6865183147       -0.5701587725
 C          2.8983546223       -2.8133790796        0.0899297468
 H         -2.0782942029       -0.5970820248       -0.7721686402
 H          6.2187471163       -1.7962920340       -1.8974619120
 H         -3.5659950313       -2.5024865699       -0.2623100339
 H         -4.0503338097        0.1006514312        1.0486702705
 H         -5.2887134873       -1.1519627721       -1.3186838562
 H         -6.0803360098       -0.2365961615       -0.0094805785
 H         -5.0421633389        1.8443273070       -0.7777480279
 H         -5.5600600301        1.0731811913       -2.2825655887
 H         -3.3544430060        0.1098201186       -2.6393625625
 H         -2.9795806334        1.7311752979       -2.0482707562
 H         -0.3273157085        0.5418109664       -1.2800539283
 H         -0.8425570195        2.0828772701       -1.9838415260
 H          1.6769359068        1.7144303811       -1.6971656445
 H          1.0533528200        3.2526428881       -1.1055642211
 H          2.6095486648        2.2282624040        0.5331606439
 H          0.6286337011        1.9927287153        2.4012503660
 H          1.1890910949        3.5365854195        1.7884158057
 H         -0.6433442335        3.8566986216        0.3600700795
 H         -1.3952556919        3.0711297113        1.7582611534
 H         -0.1879986298        0.0178176405        1.7388109460
 H          4.3552818300        1.8724298478       -1.0497718606
 H          6.4503755696        0.6842952884       -2.1948430002
 H          2.5888352668       -3.8195295257        0.3296193407
 H         -2.6819929174       -1.2600031168        2.3914595533
 H         -2.5216905004       -2.9685481425        2.0235938434
 H         -1.6173425048       -1.8078746514        1.0900677739
 H         -4.8223299290       -3.4122530848        1.7195282232
 H         -5.2674369108       -1.7770283287        2.1774549770
 H         -5.8643877025       -2.4813792316        0.6655432294
  57
        -81.17856290
 C         -6.5913595886       -0.1256243173       -0.6030117903
 C         -5.2779481930       -0.4257979760        0.1091616382
 C         -5.1916092202        0.3737413066        1.4038856295
 N         -4.1315136513       -0.0812016437       -0.7795899383
 C         -4.1649339332       -0.7170102197       -2.1180440779
 C         -2.7258174447       -0.6081379603       -2.5927945653
 C         -1.9441167704       -0.9582097082       -1.3288224520
 C         -2.7829953846       -0.3356838828       -0.1950087485
 C         -2.2588924632        1.0412791989        0.2505110721
 O         -2.8206362632        2.0421653393       -0.2052808664
 N         -1.2582056418        1.0884708220        1.1206179181
 C         -0.8263464203        2.3664259524        1.6582686813
 C          0.6605041717        2.6296885689        1.3917586606
 C          1.4793197513        1.3331159349        1.4473933161
 C          0.7426093977        0.2954402722        2.3046271647
 C         -0.5937527026       -0.0862203003        1.6643575427
 N          1.7372839056        0.7887503577        0.1279706673
 C          1.0454640509        0.9665914540       -1.0322785387
 N          1.5013786969        0.2798028897       -2.0381519891
 C          2.5758731946       -0.4176869275       -1.5394080813
 C          2.7297100951       -0.1043751855       -0.1688102730
 C          3.7651028921       -0.7069729941        0.5473934902
 C          4.2953031943       -0.7219688537        1.8627320635
 C          5.3625520844       -1.5730551919        1.8437849873
 N          5.5280222987       -2.0938995474        0.5948126376
 C          4.5707828296       -1.5877158638       -0.2257531628
 N          4.4378567165       -1.8894501540       -1.5214908742
 C          3.4496481936       -1.3107443480       -2.1695793089
 H         -2.8669948420       -1.0101764277        0.6562913138
 H          6.2422005846       -2.7434175733        0.3115793630
 H         -5.2095543700       -1.4974039524        0.3211506028
 H         -4.1224607026        0.9601469168       -0.9042131795
 H         -4.4521634411       -1.7626443589       -1.9993666044
 H         -4.8690602678       -0.2097680445       -2.7716954215
 H         -2.5000161842        0.4096403133       -2.9107567724
 H         -2.5042567671       -1.2819706116       -3.4146608292
 H         -1.8937953461       -2.0389542737       -1.2042070827
 H         -0.9300963031       -0.5680742425       -1.3721477282
 H         -1.4400806449        3.1457206577        1.2052909982
 H         -1.0168023133        2.3585332734        2.7346308614
 H          0.8043600690        3.1155303303        0.4274186801
 H          1.0247060684        3.3165277286        2.1542833422
 H          2.4610748769        1.5347440149        1.8869102656
 H          1.3498021269       -0.6038293150        2.4064141025
 H          0.5964034161        0.7178346727        3.2974967247
 H         -1.2287946138       -0.5611354189        2.4199823041
 H         -0.4132520138       -0.8020102833        0.8609975980
 H          0.2062364902        1.6275384572       -1.1186765416
 H          3.9427337980       -0.1763067271        2.7143848235
 H          6.0210227234       -1.8460593323        2.6443469960
 H          3.3466144009       -1.5559170465       -3.2159451182
 H         -6.0627805955        0.1620561929        2.0161774364
 H         -4.3105646865        0.1265270980        1.9884502906
 H         -5.1787727756        1.4408094861        1.1932967228
 H         -7.4162069563       -0.3010474700        0.0809867641
 H         -6.6313893798        0.9156665872       -0.9124259850
 H         -6.7428711668       -0.7623025346       -1.4683058833
  57
        -81.17788725
 C         -7.0998752180       -0.3140629465        1.4379970093
 C         -5.7122755233       -0.6938505712        0.9354523791
 C         -4.7635235854       -0.8845907351        2.1129708590
 N         -5.1924714626        0.3732108097        0.0336028967
 C         -6.0821583173        0.7263014341       -1.0977541739
 C         -5.1496832295        1.4303624410       -2.0694568587
 C         -3.8996736387        0.5549137225       -2.0059189388
 C         -3.8368607321        0.1169763445       -0.5286390290
 C         -2.8736057221        1.0054238328        0.2777177654
 O         -3.3641741295        1.9098844276        0.9606426148
 N         -1.5726971246        0.7637181962        0.1927966013
 C         -0.6477551249        1.5777432616        0.9671810426
 C          0.4008309086        0.6851949317        1.6201292822
 C          1.2469309121       -0.0541983220        0.5709097079
 C          0.4963580837       -0.1122209043       -0.7701237983
 C         -0.9924383112       -0.3484405630       -0.5470008478
 N          2.5445669580        0.5574565988        0.3761228083
 C          2.8766794472        1.8792421595        0.4143185173
 N          4.1234505821        2.1264039498        0.1462006104
 C          4.6855951373        0.8962742726       -0.1055707930
 C          3.6908650972       -0.1004492558        0.0278130187
 C          4.0369853361       -1.4330166445       -0.2027038509
 C          3.4311744320       -2.7157089897       -0.2170159723
 C          4.4107367848       -3.6081344994       -0.5444799683
 N          5.5932122952       -2.9584796613       -0.7379907313
 C          5.4042097035       -1.6274941933       -0.5405127802
 N          6.3572320637       -0.6965762733       -0.6585210822
 C          5.9984759491        0.5517292042       -0.4450798571
 H         -3.5826426448       -0.9368431470       -0.4279029884
 H          6.4708544541       -3.3815439500       -0.9881863068
 H         -5.7727280037       -1.6137676253        0.3454707969
 H         -5.0281257714        1.2325216277        0.6133846478
 H         -6.4699702885       -0.1947639601       -1.5351210059
 H         -6.9042627215        1.3540030136       -0.7653759272
 H         -4.9281080828        2.4397347736       -1.7222019388
 H         -5.5641537145        1.4914252457       -3.0713118312
 H         -4.0147472290       -0.3146709106       -2.6510457344
 H         -3.0120652416        1.1027634871       -2.3122971836
 H         -0.1805980107        2.3226428399        0.3168462505
 H         -1.2280370674        2.1078299126        1.7250240404
 H          1.0411631940        1.2833474629        2.2668091089
 H         -0.1061614822       -0.0453851839        2.2506978440
 H          1.4501609649       -1.0693125357        0.9239451579
 H          0.6470778334        0.8246998665       -1.3081729380
 H          0.9033581944       -0.9135454155       -1.3861112186
 H         -1.1264074552       -1.2776119707        0.0179718514
 H         -1.4815169180       -0.4489979458       -1.5152853993
 H          2.1739017363        2.6513482451        0.6549003085
 H          2.4076222071       -2.9570285078       -0.0152890598
 H          4.3455018152       -4.6722673940       -0.6547751108
 H          6.7687118967        1.3020829829       -0.5449199140
 H         -5.1816633898       -1.6158440414        2.7978817397
 H         -3.7856256991       -1.2427928015        1.8058543232
 H         -4.6356462716        0.0498316402        2.6549740607
 H         -7.8316746498       -0.2843447297        0.6374897871
 H         -7.4335789723       -1.0543600559        2.1588876481
 H         -7.0767272271        0.6505141179        1.9388064849
  57
        -81.17775375
 C         -3.5951543762       -1.1686162241       -2.8100766545
 C         -3.0110473186       -1.5418619329       -1.4539301610
 C         -3.3633992387       -2.9742969171       -1.0766760954
 N         -3.4729661506       -0.6226030810       -0.3681068267
 C         -4.9358423669       -0.4870825968       -0.1835138564
 C         -5.0601599950        0.7782278752        0.6507142149
 C         -4.0384217059        1.6999180099       -0.0144662503
 C         -2.8919881702        0.7464013990       -0.4021495745
 C         -1.7688817622        0.7406770940        0.6521206634
 O         -1.7240967451       -0.2209554231        1.4272213406
 N         -0.9250367278        1.7619147802        0.7150737588
 C         -0.8697809504        2.9156068744       -0.1592825762
 C          0.4258606430        2.9217247362       -1.0009703279
 C          1.5312427094        2.1053551987       -0.3233889427
 C          1.4230665661        2.3306378798        1.1910168712
 C          0.1224649517        1.7295869082        1.7264419496
 N          1.4324660316        0.6875942898       -0.6278981718
 C          0.4337905283        0.0280689998       -1.2751767471
 N          0.5403546299       -1.2666093009       -1.2633424705
 C          1.6960416494       -1.5204125377       -0.5638409999
 C          2.2751996930       -0.2902896575       -0.1699689025
 C          3.4964918029       -0.3148722732        0.5066124933
 C          4.4561908254        0.5919349306        1.0260854274
 C          5.4592552310       -0.1630302925        1.5618270407
 N          5.1829676510       -1.4891722838        1.4099286157
 C          3.9972601222       -1.6218854004        0.7599601455
 N          3.4423948235       -2.7894648758        0.4207401480
 C          2.3060925521       -2.7364709407       -0.2408385773
 H         -2.4974797895        0.9542679080       -1.3946877232
 H          5.7619578358       -2.2558961425        1.7081454660
 H         -1.9191317206       -1.4537009463       -1.4794460410
 H         -3.0614891114       -1.0005346611        0.5210801766
 H         -5.4050944938       -0.3470459719       -1.1560166583
 H         -5.3452998143       -1.3684097305        0.3025680948
 H         -4.7819352983        0.5828815952        1.6866187633
 H         -6.0648632364        1.1898778403        0.6323144632
 H         -4.4674725222        2.1534006903       -0.9068413835
 H         -3.7081318279        2.4906366012        0.6541707956
 H         -1.7428584936        2.9536723747       -0.8040694297
 H         -0.8872970762        3.8001425507        0.4826694492
 H          0.2530918884        2.5530150610       -2.0102447148
 H          0.7742234302        3.9492653871       -1.0939075522
 H          2.5129361452        2.4418924794       -0.6753815653
 H          2.2587405596        1.8723762580        1.7156827547
 H          1.4595586341        3.4042862371        1.3715015550
 H         -0.2112317065        2.2737204905        2.6152038654
 H          0.2668753305        0.6840349263        2.0111306054
 H         -0.3524582923        0.5309775354       -1.7966473000
 H          4.4292643581        1.6623571067        0.9909262682
 H          6.3603287438        0.1588743926        2.0449907500
 H          1.8690671746       -3.6808149630       -0.5286280459
 H         -2.9585734888       -3.2299795345       -0.1004505394
 H         -4.4377869142       -3.1345502938       -1.0744465166
 H         -2.9245109788       -3.6515153354       -1.8028495213
 H         -4.6305037807       -1.4852588586       -2.8971361932
 H         -3.5326832342       -0.1029568944       -3.0091424386
 H         -3.0296918932       -1.6819862010       -3.5819179633
  57
        -81.17739799
 C         -5.4334326780       -2.5698447046       -0.7268281997
 C         -4.4549670567       -1.5008615320       -1.1984526633
 C         -3.0527847419       -2.0889229866       -1.3088902682
 N         -4.4589146410       -0.3622558709       -0.2359524211
 C         -5.7947904340        0.2407654378       -0.0016605825
 C         -5.4765387249        1.6343814689        0.5148973802
 C         -4.3192809367        2.0483288019       -0.3898420070
 C         -3.5123126477        0.7466890804       -0.5455939999
 C         -2.3985601742        0.6492141799        0.5156915037
 O         -2.5680955253       -0.1386349212        1.4532199539
 N         -1.3306256459        1.4264909545        0.4135495851
 C         -1.0128065526        2.3276468705       -0.6729878890
 C          0.2885072582        1.8992308237       -1.3639336174
 C          1.3857906013        1.5302040634       -0.3492982926
 C          0.9845129619        1.9827585732        1.0605820749
 C         -0.3344484450        1.3458727756        1.4788979817
 N          1.6718701837        0.1085764184       -0.3446618228
 C          0.8138095500       -0.9382230922       -0.5036728520
 N          1.3649225678       -2.1087069665       -0.3886607902
 C          2.6886722303       -1.8539026991       -0.1172056419
 C          2.8889035566       -0.4537151764       -0.0763140693
 C          4.1658756435        0.0352220409        0.2051824834
 C          4.8302059052        1.2777291299        0.3707822910
 C          6.1348486542        0.9899505386        0.6504962013
 N          6.3253120794       -0.3597370862        0.6711464726
 C          5.1439553690       -0.9769711929        0.4071852059
 N          4.9704476884       -2.3019682832        0.3606366845
 C          3.7540257588       -2.7334167084        0.1030189894
 H         -3.1150498543        0.6250105493       -1.5517880153
 H          7.1920378405       -0.8356600102        0.8562458898
 H         -4.7766227365       -1.1073154927       -2.1679876018
 H         -4.0813819974       -0.7156801003        0.6801636189
 H         -6.3209792510        0.2984324659       -0.9555533821
 H         -6.3699088676       -0.3539836879        0.7025547437
 H         -5.1540010382        1.5925906240        1.5554794610
 H         -6.3266579196        2.3058792466        0.4407076173
 H         -4.6963207206        2.3749084807       -1.3580222096
 H         -3.7293185635        2.8510682869        0.0436309539
 H         -1.8177684725        2.3550070275       -1.4014337522
 H         -0.8964386419        3.3326773620       -0.2599619179
 H          0.1078549697        1.0504654273       -2.0228698927
 H          0.6291446421        2.7258306941       -1.9853603375
 H          2.3254263723        2.0154090338       -0.6253871023
 H          1.7554768077        1.6903234846        1.7740535722
 H          0.9148468527        3.0693561879        1.0736384738
 H         -0.7260604848        1.8371032130        2.3753518171
 H         -0.1912821577        0.2891208364        1.7271569551
 H         -0.2297650594       -0.8129658656       -0.7077129447
 H          4.4075161042        2.2595034659        0.3018064290
 H          6.9484261226        1.6619772084        0.8388095997
 H          3.6163671007       -3.8039747386        0.0710355277
 H         -2.6598146968       -2.3383586331       -0.3255501179
 H         -3.0877759300       -3.0032883829       -1.8928341359
 H         -2.3553797544       -1.4198837641       -1.8041228633
 H         -5.1731062638       -2.9137114718        0.2710805944
 H         -6.4593427899       -2.2168272097       -0.7279794036
 H         -5.3801807128       -3.4231664019       -1.3961558514
  57
        -81.17733148
 C         -5.5936326845       -1.5792716175        0.4237805917
 C         -5.2814892463       -0.1124363359        0.1592699160
 C         -6.4848977392        0.6184897810       -0.4202956748
 N         -4.1133508791        0.0601217931       -0.7565694145
 C         -4.1690867426       -0.6475527886       -2.0553553289
 C         -2.7229998743       -0.6101516765       -2.5218676661
 C         -1.9621771239       -0.9235032500       -1.2337455405
 C         -2.7853914770       -0.2150214628       -0.1400149080
 C         -2.2256899815        1.1659426010        0.2488527360
 O         -2.7697745685        2.1610433506       -0.2430153174
 N         -1.2223659499        1.2251063772        1.1137618187
 C         -0.7552637551        2.5131397680        1.5951202420
 C          0.7355344607        2.7266579393        1.3076685835
 C          1.5228696621        1.4141780660        1.4197470982
 C          0.7639605686        0.4331322378        2.3231505336
 C         -0.5844129287        0.0580041229        1.7045401764
 N          1.7646994437        0.8059577779        0.1254619281
 C          1.0705098964        0.9432711858       -1.0388960962
 N          1.5090880210        0.2031540049       -2.0141248967
 C          2.5733494262       -0.4902390915       -1.4885049230
 C          2.7393627693       -0.1177302265       -0.1342503409
 C          3.7671468451       -0.7057322890        0.6046153067
 C          4.3030720665       -0.6708303749        1.9172450954
 C          5.3552441988       -1.5405351067        1.9326587918
 N          5.5059186788       -2.1198333346        0.7078261525
 C          4.5537849048       -1.6344899619       -0.1310498851
 N          4.4093681677       -1.9923572276       -1.4111960890
 C          3.4281189087       -1.4265483209       -2.0809024043
 H         -2.9023617211       -0.8323740561        0.7502462576
 H          6.2075167700       -2.7936261285        0.4512420947
 H         -4.9949870199        0.3759595808        1.0961699903
 H         -4.0413312751        1.0891195130       -0.9523256690
 H         -4.4851515868       -1.6759574615       -1.8894700549
 H         -4.8572392918       -0.1512169696       -2.7344196165
 H         -2.4585167069        0.3819453498       -2.8879441266
 H         -2.5168316321       -1.3315352540       -3.3065820027
 H         -1.9521103830       -1.9977595378       -1.0550470137
 H         -0.9346706029       -0.5726544915       -1.2906146745
 H         -1.3525216357        3.2886354288        1.1143738231
 H         -0.9373279294        2.5544691353        2.6720694261
 H          0.8838169321        3.1625752692        0.3203863679
 H          1.1214405991        3.4399332010        2.0343860270
 H          2.5102746986        1.6113241251        1.8483409660
 H          1.3491261284       -0.4758762245        2.4613184906
 H          0.6330254318        0.9011049136        3.2975176197
 H         -1.2284469747       -0.3675307948        2.4813278494
 H         -0.4255731409       -0.6954870844        0.9318385722
 H          0.2431344849        1.6150639409       -1.1520536937
 H          3.9638023453       -0.0815763438        2.7449247435
 H          6.0126026416       -1.7886042225        2.7421711680
 H          3.3154434902       -1.7174784831       -3.1144635490
 H         -7.3042847973        0.5848587078        0.2913708432
 H         -6.2516467327        1.6631794041       -0.6120897253
 H         -6.8243397534        0.1536290843       -1.3411977498
 H         -6.1055993156       -2.0333891142       -0.4193549558
 H         -4.7004016305       -2.1544005109        0.6492399997
 H         -6.2561889620       -1.6463390861        1.2816888369
  57
        -81.17728968
 C         -7.4177254142       -0.4329662176       -0.5800536936
 C         -6.0072075131       -0.1851857163       -1.1011187687
 C         -5.3070276036       -1.5138922545       -1.3615682138
 N         -5.2343750178        0.6086127457       -0.1034091491
 C         -5.8761248654        1.8779763971        0.3157725603
 C         -4.7203667039        2.6981148576        0.8657348744
 C         -3.6159899151        2.4083054886       -0.1476923647
 C         -3.8312967321        0.9243546810       -0.4935686381
 C         -2.9435661665        0.0038260960        0.3630631309
 O         -3.4876212549       -0.6300663160        1.2740523231
 N         -1.6441313992       -0.0629185329        0.1108853315
 C         -0.8236206415       -0.9084385571        0.9716506373
 C          0.6143252518       -0.4169423840        0.9890125185
 C          1.2357145702       -0.5506769970       -0.4118227154
 C          0.1856204054       -0.2288670136       -1.4859848232
 C         -0.9413486708        0.6478327682       -0.9425263999
 N          2.4086507184        0.2925742783       -0.5099327228
 C          2.4932277817        1.5974534015       -0.8963798688
 N          3.6870645987        2.1033026318       -0.8185706090
 C          4.4756861542        1.0861728541       -0.3339570112
 C          3.6725513122       -0.0599542164       -0.1269894910
 C          4.2677225651       -1.2171499982        0.3779452060
 C          3.9071468384       -2.5370501494        0.7522947200
 C          5.0489852559       -3.1471164417        1.1849445340
 N          6.1022868271       -2.2854550856        1.1048295428
 C          5.6636193240       -1.0949239130        0.6182637306
 N          6.4357819094       -0.0211903249        0.4202096568
 C          5.8452017406        1.0571961193       -0.0497782557
 H         -3.6913245278        0.7297340883       -1.5558665012
 H          7.0543400756       -2.4839636125        1.3620491589
 H         -6.0522630999        0.4063938999       -2.0210108235
 H         -5.0899393095        0.0003623366        0.7420539837
 H         -6.3004592889        2.3599107597       -0.5661479978
 H         -6.6565707506        1.6949028851        1.0491175545
 H         -4.4357010605        2.3421178815        1.8560434746
 H         -4.9591748333        3.7553238540        0.9323236645
 H         -3.7462355222        3.0244994277       -1.0358034294
 H         -2.6274564079        2.5965699111        0.2611395124
 H         -1.2547451699       -0.8864431344        1.9751828311
 H         -0.8647169378       -1.9425404657        0.6145913373
 H          0.6483113641        0.6268875131        1.3054150303
 H          1.1899889444       -0.9959700484        1.7101768510
 H          1.5938740265       -1.5738866384       -0.5569665463
 H          0.6589941853        0.2651736386       -2.3334257026
 H         -0.2433347893       -1.1627557612       -1.8487524263
 H         -1.6248418073        0.8899467331       -1.7538433468
 H         -0.5335072626        1.5833961964       -0.5478195487
 H          1.6525642534        2.1599424404       -1.2482639377
 H          2.9348415342       -2.9847198417        0.7143453143
 H          5.1838343407       -4.1462786345        1.5487678962
 H          6.4706196138        1.9235152033       -0.2065907326
 H         -4.3329421606       -1.3900686454       -1.8250038630
 H         -5.1798729415       -2.0658006782       -0.4328575565
 H         -5.9142686347       -2.1159059977       -2.0305182241
 H         -7.9474473196       -1.0764759104       -1.2760329426
 H         -7.3882412027       -0.9372902622        0.3824968559
 H         -7.9877012084        0.4853890617       -0.4854362346
  57
        -81.17699193
 C         -6.8129988366       -0.5449302499       -0.3261512874
 C         -5.6522728070        0.0428080314        0.4675412978
 C         -5.6526708325        1.5620729562        0.3434614194
 N         -4.3640433251       -0.5073839838       -0.0427345050
 C         -4.2911573643       -1.9884898686       -0.0834794286
 C         -2.7980468225       -2.2725585973       -0.1042469960
 C         -2.2727379644       -1.2609445289        0.9106744917
 C         -3.1425290799       -0.0171565496        0.6572516695
 C         -2.4701556957        0.9669474949       -0.3196351435
 O         -2.9107751904        1.0150568477       -1.4727993016
 N         -1.4609384873        1.7148708432        0.1038005371
 C         -0.8622888738        1.7101003699        1.4217322668
 C          0.5644223978        1.1348539615        1.3610059361
 C          1.1670072900        1.3716522209       -0.0348678040
 C          0.6851805159        2.7250369153       -0.5541463856
 C         -0.8147306815        2.6176174248       -0.8423092430
 N          2.6057717016        1.2625622114        0.0133237644
 C          3.5324600593        2.2391703518        0.2281507981
 N          4.7570956660        1.8098899322        0.2844854440
 C          4.6688023867        0.4479361380        0.1089141534
 C          3.3105384561        0.0932971330       -0.0587297949
 C          2.9805960869       -1.2494272233       -0.2490991944
 C          1.8335222809       -2.0598201905       -0.4476423956
 C          2.2755690251       -3.3465359102       -0.5587164618
 N          3.6322179366       -3.3883586378       -0.4378393282
 C          4.0993285767       -2.1265179890       -0.2492310362
 N          5.3883255010       -1.8056462546       -0.0930707438
 C          5.6679129701       -0.5316600116        0.0831365483
 H         -3.4230790772        0.4831186204        1.5827986568
 H          4.2097462832       -4.2108077655       -0.4830465477
 H         -5.7371043919       -0.2516141548        1.5183849585
 H         -4.2217047427       -0.1312396966       -1.0139454442
 H         -4.7417000528       -2.3833172421        0.8281683722
 H         -4.8126908499       -2.3787030574       -0.9530422288
 H         -2.3853327194       -2.0760545071       -1.0941717774
 H         -2.5684633790       -3.2976042334        0.1708111341
 H         -2.4271137401       -1.6283544719        1.9240587380
 H         -1.2149303153       -1.0566863000        0.7753670174
 H         -0.8260622636        2.7473434384        1.7632311938
 H         -1.4630130127        1.1406182858        2.1244469124
 H          1.1852617750        1.6343307201        2.1054007942
 H          0.5775956111        0.0690236518        1.5879645621
 H          0.8284576307        0.5935388973       -0.7285199817
 H          0.8804816843        3.4961673097        0.1906309170
 H          1.2110174829        2.9971650696       -1.4685108235
 H         -0.9896415491        2.2186908151       -1.8441188223
 H         -1.2853098425        3.6033588781       -0.7850107126
 H          3.2734251402        3.2734405711        0.3309867400
 H          0.8139284307       -1.7406449645       -0.5147202077
 H          1.7124004835       -4.2443917384       -0.7168321869
 H          6.7095404057       -0.2754450062        0.2083790201
 H         -5.4803132164        1.8604265476       -0.6883404484
 H         -6.6207823875        1.9479409703        0.6475920931
 H         -4.9006491349        2.0340081787        0.9685816797
 H         -6.9143683449       -1.6144879021       -0.1747360106
 H         -7.7388099590       -0.0795803128       -0.0015405033
 H         -6.6939324928       -0.3426547301       -1.3875940966
  57
        -81.17671853
 C         -6.0904743711        1.1211680148        2.6039975771
 C         -4.8279470054        0.4093580115        2.1331303773
 C         -3.5941992482        1.1189061333        2.6790136941
 N         -4.7845293754        0.3928311803        0.6431945851
 C         -5.9898168536       -0.1701661116       -0.0119163801
 C         -5.4979461516       -0.5391400505       -1.4017918555
 C         -4.1324099801       -1.1525209042       -1.1017119314
 C         -3.5963938262       -0.2853938251        0.0531466121
 C         -2.6857558356        0.8441127592       -0.4646560843
 O         -3.1547335912        1.9863276522       -0.4997476029
 N         -1.4628413258        0.5438630138       -0.8761329202
 C         -0.6037442226        1.6154755711       -1.3657000312
 C          0.8624075918        1.3419029981       -1.0279158126
 C          0.9462805403        0.6648129479        0.3441739803
 C          0.2612615851       -0.7132788166        0.3091854203
 C         -0.8143394324       -0.7466853751       -0.7865979466
 N          2.3126543717        0.5698696697        0.8033525203
 C          2.8119635597        1.2351673606        1.8840924221
 N          4.0768787336        1.0464801646        2.0977614849
 C          4.4804794334        0.1981616043        1.0939714409
 C          3.3737786796       -0.1113745754        0.2641510071
 C          3.5839352806       -0.9702712681       -0.8206957589
 C          2.8578238437       -1.5658630602       -1.8856246336
 C          3.7412421225       -2.3263113315       -2.5947867759
 N          4.9807887731       -2.2447919267       -2.0374267041
 C          4.9252109596       -1.4278418133       -0.9535525941
 N          5.9738145545       -1.1373673919       -0.1770459968
 C          5.7492596446       -0.3315245799        0.8378015329
 H         -3.0941859660       -0.8796143423        0.8146123291
 H          5.8134079705       -2.7068411756       -2.3620810419
 H         -4.8451735711       -0.6324969850        2.4684020876
 H         -4.6511593411        1.3831249985        0.3174708234
 H         -6.2975628593       -1.0626899245        0.5346989320
 H         -6.7996100802        0.5538918519       -0.0244308751
 H         -5.3903500119        0.3530988645       -2.0189079098
 H         -6.1648278636       -1.2320925426       -1.9058466795
 H         -4.2471586319       -2.1849055509       -0.7744293333
 H         -3.4788618648       -1.1324471925       -1.9698067796
 H         -0.7298188614        1.7187258351       -2.4475224860
 H         -0.9423240187        2.5438492580       -0.8989454162
 H          1.3332176238        0.7112488953       -1.7797953609
 H          1.4064695051        2.2863812154       -1.0078568553
 H          0.4370988364        1.3101089760        1.0694633441
 H          1.0015419619       -1.4869165769        0.1109472186
 H         -0.1781092844       -0.9197747275        1.2850042050
 H         -1.5305246303       -1.5380548081       -0.5872063495
 H         -0.3576145864       -0.9470999872       -1.7580538884
 H          2.1967426963        1.8603009315        2.5014452130
 H          1.8179615666       -1.4616622034       -2.1128755251
 H          3.5674492341       -2.9257132639       -3.4660983851
 H          6.5923245126       -0.0943528267        1.4694497886
 H         -2.6727917934        0.5954078072        2.4417578397
 H         -3.5299095341        2.1299127332        2.2828434571
 H         -3.6652276498        1.1853215155        3.7602824131
 H         -6.0732449552        1.1994391532        3.6869544121
 H         -6.1377004469        2.1286764676        2.1983186485
 H         -6.9914693619        0.5825720589        2.3296820765
  57
        -81.17658647
 C         -6.1012163732       -1.8002611921        0.5938272364
 C         -5.6491860994       -0.4721982545        1.1865767410
 C         -6.7675962502        0.1969627946        1.9738418716
 N         -5.1502269202        0.4717564440        0.1414016797
 C         -6.0561667964        0.7533153482       -0.9949432252
 C         -5.1237076232        1.3668085258       -2.0269399471
 C         -3.8911320207        0.4685664329       -1.9191842488
 C         -3.8096187665        0.1430098747       -0.4145340887
 C         -2.8221267982        1.0709948461        0.3157035791
 O         -3.2941405499        2.0166812848        0.9567352342
 N         -1.5256331960        0.8157158428        0.2168865817
 C         -0.5774548669        1.6725630283        0.9134376339
 C          0.4851779707        0.8202839437        1.5968229557
 C          1.2982817904        0.0036410751        0.5788674584
 C          0.5142330503       -0.1369439370       -0.7363664662
 C         -0.9695531717       -0.3475952082       -0.4608875856
 N          2.5957010322        0.5878629995        0.3130528523
 C          2.9322296180        1.9066187267        0.2310633542
 N          4.1764220846        2.1240063739       -0.0721039380
 C          4.7319775701        0.8742704151       -0.2203076366
 C          3.7360066154       -0.1029752172        0.0118711917
 C          4.0762679091       -1.4520413968       -0.1028622050
 C          3.4676183227       -2.7291249327        0.0033884053
 C          4.4419789179       -3.6502844472       -0.2522149158
 N          5.6240689832       -3.0241526306       -0.5136691801
 C          5.4396864896       -1.6803043375       -0.4351701966
 N          6.3936363474       -0.7670482869       -0.6461812103
 C          6.0401637028        0.4964998234       -0.5420469664
 H         -3.5652886244       -0.9011563745       -0.2251214193
 H          6.4981293613       -3.4700855852       -0.7349059277
 H         -4.8020082153       -0.6405785491        1.8590294736
 H         -4.9527346672        1.3799931356        0.6314114810
 H         -6.4654943636       -0.1845138953       -1.3665386057
 H         -6.8619265323        1.4157660410       -0.6902477580
 H         -4.8735945492        2.3929685807       -1.7563138805
 H         -5.5511520448        1.3661321621       -3.0251970001
 H         -4.0386735872       -0.4442616583       -2.4942018908
 H         -2.9991348584        0.9718934713       -2.2834143712
 H         -0.1247567838        2.3704471521        0.2035151600
 H         -1.1355669498        2.2547367729        1.6495001776
 H          1.1468653434        1.4584280320        2.1810216335
 H         -0.0065390543        0.1392046746        2.2915182290
 H          1.5016353407       -0.9872365550        0.9945058727
 H          0.6570169760        0.7611920499       -1.3388909656
 H          0.9010358254       -0.9804597973       -1.3074450421
 H         -1.0947326072       -1.2348184992        0.1693362941
 H         -1.4834080954       -0.5099878367       -1.4075146576
 H          2.2347682916        2.6997877375        0.4109027149
 H          2.4454455637       -2.9486830422        0.2348676838
 H          4.3735579392       -4.7198367259       -0.2659264563
 H          6.8109500847        1.2325352271       -0.7164679303
 H         -6.4395709205        1.1480512637        2.3867567686
 H         -7.6447817807        0.3604020682        1.3546633295
 H         -7.0592097683       -0.4427921192        2.8013206013
 H         -6.1989017874       -2.5256274910        1.3962242685
 H         -7.0725757575       -1.7110489502        0.1166005118
 H         -5.3868782653       -2.1939797763       -0.1231500588
  57
        -81.17646971
 C         -7.2692151797        0.6653257496        0.4532702370
 C         -5.8663663092        0.5336121075        1.0338085667
 C         -5.3696786568        1.8917790237        1.5151535801
 N         -4.9402961107       -0.0067851152       -0.0016972065
 C         -5.3727624757       -1.2792410292       -0.6263765644
 C         -4.0929591701       -1.8180647494       -1.2432460123
 C         -3.0641589007       -1.5305701451       -0.1514670461
 C         -3.5311679350       -0.1872344211        0.4460236818
 C         -2.7419601450        0.9869958341       -0.1582607314
 O         -3.2761339932        1.6267847779       -1.0689197371
 N         -1.5314973876        1.2408290961        0.3207782594
 C         -0.9287330514        0.5260256670        1.4379420430
 C          0.5646554690        0.8326830184        1.5319324976
 C          1.2016920699        0.7072466756        0.1431752490
 C          0.5687444493        1.7203481150       -0.8334720549
 C         -0.7287892720        2.2980693160       -0.2643824569
 N          2.6350102088        0.8724975947        0.2238510247
 C          3.3095793564        1.9931144256        0.6107202724
 N          4.6013648614        1.8639716926        0.6201688314
 C          4.8329796204        0.5688432182        0.2173855581
 C          3.5935221395       -0.0667472567       -0.0337022565
 C          3.5939464351       -1.3988848941       -0.4538219947
 C          2.6739480262       -2.4181783692       -0.8119321334
 C          3.4122260240       -3.5213413536       -1.1297059606
 N          4.7407520486       -3.2530937128       -0.9897045605
 C          4.8915508722       -1.9667778421       -0.5795508404
 N          6.0690054096       -1.3777860352       -0.3452916432
 C          6.0374303770       -0.1225769935        0.0484761885
 H         -3.4793999995       -0.1859074495        1.5334020301
 H          5.4995647421       -3.8905903375       -1.1619807402
 H         -5.8758299996       -0.1809566181        1.8628297669
 H         -4.8385538614        0.7191878726       -0.7523404873
 H         -5.7332006843       -1.9461926157        0.1580464104
 H         -6.1582501765       -1.1074026003       -1.3569838606
 H         -3.8486551494       -1.2697173363       -2.1532395115
 H         -4.1614329719       -2.8750475805       -1.4826121868
 H         -3.0901604551       -2.3098615918        0.6083990776
 H         -2.0579027390       -1.4715681639       -0.5588691816
 H         -1.4138483821        0.8216320386        2.3737520019
 H         -1.0572659746       -0.5482453961        1.2978729909
 H          0.7400466036        1.8316129535        1.9291258172
 H          1.0299384571        0.1208829115        2.2140210771
 H          1.0400288037       -0.3096635403       -0.2224264745
 H          1.2617655461        2.5391017179       -1.0248951412
 H          0.3682506141        1.2325388740       -1.7872911241
 H         -1.3135217498        2.7673456195       -1.0563319424
 H         -0.5180850263        3.0492406825        0.4996840989
 H          2.8131821260        2.9033949232        0.8827858416
 H          1.6054295622       -2.3572471684       -0.8392878450
 H          3.0786355159       -4.4886219733       -1.4485860216
 H          6.9893598577        0.3513096908        0.2368437009
 H         -5.2785064652        2.5830841398        0.6802296705
 H         -6.0836381875        2.3077508474        2.2193434468
 H         -4.4094189543        1.8301947548        2.0182161089
 H         -7.7031891974       -0.2981845849        0.2072692055
 H         -7.9159133242        1.1374219148        1.1867046613
 H         -7.2606153427        1.2925353090       -0.4346195923
  57
        -81.17645143
 C         -6.0886277506       -1.7759526918        1.3467321111
 C         -5.6077259553       -0.3734453405        1.6958666893
 C         -6.6924248854        0.4278601272        2.4028067246
 N         -5.1437653314        0.3809944979        0.4927661578
 C         -6.1011491661        0.4972149841       -0.6314561099
 C         -5.2102692647        0.8703560489       -1.8057329925
 C         -4.0044248623       -0.0437795963       -1.5926045424
 C         -3.8350879065       -0.0597539920       -0.0633217210
 C         -2.8117211114        0.9862762069        0.4131752479
 O         -3.2511657176        2.0109131828        0.9491318583
 N         -1.5207902673        0.7583687350        0.2179834765
 C         -0.9638964717       -0.4448301416       -0.3804430439
 C          0.4868539733       -0.6207041848        0.0530350484
 C          1.3532873873        0.5338729859       -0.4778023786
 C          0.5654658288        1.8521043777       -0.4209124984
 C         -0.5636155764        1.7883096433        0.5997316476
 N          2.5929366259        0.5957058994        0.2673356130
 C          2.8611926566        1.2688875237        1.4222005330
 N          4.0608338587        1.0829057301        1.8844981144
 C          4.6554498226        0.2157018227        0.9974058548
 C          3.7301938259       -0.1048287654       -0.0232486668
 C          4.1182417785       -0.9892163829       -1.0311616267
 C          3.5798657380       -1.6017055765       -2.1919896501
 C          4.5662447711       -2.3882938020       -2.7131237180
 N          5.6891495874       -2.3054194858       -1.9449814281
 C          5.4533214053       -1.4618485342       -0.9062047763
 N          6.3411277996       -1.1602479394        0.0475798217
 C          5.9429462586       -0.3319255348        0.9898391934
 H         -3.5779357036       -1.0472702637        0.3175284518
 H          6.5583094581       -2.7850523226       -2.1076090965
 H         -4.7367168085       -0.4386251606        2.3558086306
 H         -4.9082722357        1.3505541150        0.8255370519
 H         -6.5663390965       -0.4714700198       -0.8054049619
 H         -6.8630504042        1.2403870983       -0.4118996908
 H         -4.9127656572        1.9174937187       -1.7441782235
 H         -5.6954748841        0.7029511073       -2.7626700446
 H         -4.2201789515       -1.0464272654       -1.9575446923
 H         -3.1206787765        0.3280881943       -2.1022702784
 H         -1.5350403063       -1.3173565440       -0.0647985959
 H         -1.0052357082       -0.3777197271       -1.4718668782
 H          0.5492327980       -0.6472449670        1.1419216438
 H          0.8670155915       -1.5705282772       -0.3216807347
 H          1.6419249307        0.3330539345       -1.5135547161
 H          1.2319793555        2.6786281171       -0.1784518370
 H          0.1389260189        2.0563458614       -1.4030381324
 H         -1.0985636259        2.7393710291        0.6421975670
 H         -0.1774135928        1.5770170352        1.6011135645
 H          2.1494381606        1.9075584546        1.9052003558
 H          2.5951885747       -1.4839719306       -2.5958852846
 H          4.5444526014       -3.0081995067       -3.5872178347
 H          6.6597962659       -0.0929595607        1.7614286241
 H         -6.3445431120        1.4300464410        2.6418884748
 H         -7.5916757485        0.4968905318        1.7977597487
 H         -6.9549900199       -0.0644443041        3.3343898013
 H         -6.1537385897       -2.3600625034        2.2600541056
 H         -7.0794021571       -1.7568601123        0.9025703290
 H         -5.4069332468       -2.2884434411        0.6743738167
  57
        -81.17643114
 C         -4.9423013906       -2.8194632215       -0.1192548470
 C         -3.9477469547       -1.8040895090       -0.6687213394
 C         -2.5296160775       -2.1887063908       -0.2614840264
 N         -4.2758993486       -0.4465136492       -0.1467219993
 C         -5.6657193838        0.0033411869       -0.4010252501
 C         -5.5807747186        1.5152910523       -0.2655118423
 C         -4.2695816691        1.8255070714       -0.9836259986
 C         -3.3644419722        0.6424570075       -0.5978006736
 C         -2.4785128833        0.9748718548        0.6167686416
 O         -2.7910979725        0.4755547755        1.7020590312
 N         -1.4493337055        1.7960914221        0.4561746076
 C         -0.6046995650        2.1181874159        1.5924217434
 C          0.7607865250        1.4341354398        1.4385488089
 C          1.1123676219        1.3069934586       -0.0554851100
 C          0.5267028156        2.5013394546       -0.8084077137
 C         -1.0037924910        2.3750511184       -0.8000443269
 N          2.5386633526        1.1744877786       -0.2343890923
 C          3.4725537507        2.1460669947       -0.4409166018
 N          4.6930128902        1.7069243615       -0.5113299599
 C          4.5964460544        0.3464137611       -0.3287944299
 C          3.2375541896        0.0031974503       -0.1434996037
 C          2.9001709995       -1.3339241600        0.0705266517
 C          1.7509435908       -2.1297471058        0.3117828207
 C          2.1849173907       -3.4183448820        0.4326104984
 N          3.5380230373       -3.4747619260        0.2796748614
 C          4.0116595506       -2.2200805884        0.0616311752
 N          5.3003402022       -1.9116377900       -0.1202420828
 C          5.5876775206       -0.6412556366       -0.3105972681
 H         -2.7685672241        0.2974326933       -1.4413233215
 H          4.1095336876       -4.3011562305        0.3286157806
 H         -4.0295151985       -1.7606503953       -1.7594212430
 H         -4.1037426281       -0.4556348975        0.8902652371
 H         -5.9399923240       -0.2747575241       -1.4196342118
 H         -6.3560490108       -0.4500452817        0.3049191200
 H         -5.5203275887        1.8023866535        0.7844284269
 H         -6.4318191667        2.0184690583       -0.7144908206
 H         -4.4235230383        1.8453474403       -2.0611876014
 H         -3.8508721788        2.7796457597       -0.6767896972
 H         -0.4913319268        3.2027153145        1.6358172409
 H         -1.1036206124        1.7816475713        2.5010959685
 H          1.5226208173        2.0297283620        1.9422250075
 H          0.7534102760        0.4464255889        1.8994068340
 H          0.6754678341        0.3868914132       -0.4599060138
 H          0.8422170930        3.4262715557       -0.3273898785
 H          0.8834704617        2.5178632515       -1.8375315682
 H         -1.3156846832        1.7428570567       -1.6294079530
 H         -1.4514294009        3.3643620836       -0.9326177843
 H          3.2206647536        3.1816425399       -0.5477222201
 H          0.7363523446       -1.7996534957        0.4024554548
 H          1.6179996252       -4.3082739691        0.6198491922
 H          6.6293317447       -0.3948754431       -0.4538417503
 H         -1.7771462394       -1.5594092834       -0.7278850391
 H         -2.4135286563       -2.1291883799        0.8186350705
 H         -2.3319786448       -3.2120677250       -0.5653355063
 H         -4.9382541581       -2.8117642969        0.9677611028
 H         -5.9512917423       -2.6380317481       -0.4744404504
 H         -4.6546545675       -3.8142884868       -0.4457453488
  57
        -81.17625800
 C         -6.5543832060        0.9495118011        0.1934470008
 C         -5.6902406918        0.0095129981       -0.6373281756
 C         -6.4796478163       -1.2038900023       -1.1089776519
 N         -4.4787792410       -0.4504726817        0.1059367287
 C         -4.7139189563       -1.1156018831        1.4099555820
 C         -3.3779468240       -0.9743574226        2.1228654647
 C         -2.9832358724        0.4565090482        1.7630591165
 C         -3.4219494580        0.5822793243        0.2949445261
 C         -2.3109288157        0.2081194519       -0.7089532426
 O         -2.4304207282       -0.8620551857       -1.3185446753
 N         -1.2930734839        1.0321693565       -0.9032491725
 C         -0.2823871569        0.6318271550       -1.8791674316
 C          0.9905104769        1.4570263413       -1.7373713628
 C          1.3872151506        1.5984963398       -0.2625339776
 C          0.2589025085        2.2813940410        0.5305613603
 C         -1.0619499881        2.3029016706       -0.2510881149
 N          1.7323963380        0.2995028226        0.2825094944
 C          0.9160069710       -0.6435632340        0.8315122882
 N          1.5183662129       -1.7380036537        1.1860353891
 C          2.8367593329       -1.5443706503        0.8467431487
 C          2.9788147979       -0.2626101590        0.2644040177
 C          4.2413783271        0.1401110230       -0.1743937327
 C          4.8573336428        1.2511302533       -0.8058753313
 C          6.1800885483        0.9418222143       -0.9392368371
 N          6.4273295561       -0.2982259029       -0.4299822040
 C          5.2662523527       -0.8213201026        0.0437736620
 N          5.1472797608       -2.0306768431        0.6017322621
 C          3.9432315744       -2.3869544525        0.9964376174
 H         -3.8163071956        1.5696240912        0.0544686438
 H          7.3185061029       -0.7639839493       -0.4048725960
 H         -5.3113112140        0.5417539943       -1.5156549483
 H         -3.9855394977       -1.1339167408       -0.5255089762
 H         -5.4869321120       -0.5741913036        1.9524016830
 H         -5.0183700203       -2.1485509465        1.2638973605
 H         -2.6511347873       -1.6858244436        1.7282830960
 H         -3.4623100162       -1.1269883260        3.1947269497
 H         -3.5357567206        1.1638364265        2.3805319541
 H         -1.9213753584        0.6338490257        1.9042162755
 H         -0.0722729962       -0.4317567862       -1.7268999186
 H         -0.6937223333        0.7371492534       -2.8880948274
 H          1.7904001845        0.9623112810       -2.2889280759
 H          0.8602311661        2.4517349462       -2.1608760090
 H          2.3008001014        2.1944253135       -0.1940655288
 H          0.1350997385        1.7732122888        1.4866170490
 H          0.5390196312        3.3110857829        0.7465760723
 H         -1.0159940602        3.0739506821       -1.0243130134
 H         -1.8780715241        2.5446279628        0.4235662284
 H         -0.1366751302       -0.5014508958        0.9625191357
 H          4.3921429328        2.1601454623       -1.1294135602
 H          6.9695978751        1.5265511783       -1.3677718926
 H          3.8489536040       -3.3658949773        1.4423815628
 H         -5.8536318716       -1.8736034195       -1.6938993066
 H         -6.9018785784       -1.7515427483       -0.2715546799
 H         -7.2997765688       -0.8769235953       -1.7410440327
 H         -7.1435309165        0.4056422537        0.9258128914
 H         -5.9650112583        1.7063824654        0.7024135797
 H         -7.2493375056        1.4597218018       -0.4669987544
  57
        -81.17583853
 C         -6.1057223793       -0.4499939715        1.5493702710
 C         -5.6419616915        0.1632498523        0.2344343268
 C         -6.6800564762       -0.0208108160       -0.8640784452
 N         -4.3367313382       -0.4008265504       -0.2236958434
 C         -4.2639002844       -1.8739006162       -0.3704940168
 C         -2.7694566774       -2.1539039403       -0.3419952721
 C         -2.2963813068       -1.2182955534        0.7689502567
 C         -3.1470823665        0.0444063822        0.5540017055
 C         -2.4413913864        1.0841363302       -0.3396405295
 O         -2.8629238787        1.2196502980       -1.4942922894
 N         -1.4330736450        1.7885245058        0.1522214616
 C         -0.8645844277        1.6909669066        1.4801898422
 C          0.5592258173        1.1089543883        1.4138723903
 C          1.1930658141        1.4274950868        0.0486363943
 C          0.7359040391        2.8169779744       -0.3916133287
 C         -0.7582911617        2.7453078452       -0.7179088851
 N          2.6293542468        1.2989359233        0.1172307489
 C          3.5628873808        2.2502357267        0.4037705810
 N          4.7823741010        1.8050075157        0.4486599227
 C          4.6826736523        0.4575920336        0.1872533316
 C          3.3230921395        0.1286966259       -0.0176540811
 C          2.9811822777       -1.1964108774       -0.2915391373
 C          1.8276031893       -1.9808726809       -0.5479773998
 C          2.2571018463       -3.2638518972       -0.7291902631
 N          3.6119798006       -3.3276679894       -0.5985690347
 C          4.0905219718       -2.0843914161       -0.3317975125
 N          5.3811095468       -1.7873570614       -0.1444913931
 C          5.6718899864       -0.5295122625        0.1113365806
 H         -3.4629745314        0.5071738863        1.4882583375
 H          4.1807915155       -4.1529407305       -0.6840364241
 H         -5.4666001148        1.2349356013        0.3726781849
 H         -4.1422729005        0.0327392026       -1.1626369336
 H         -4.7492458335       -2.3419736874        0.4840144778
 H         -4.7470183834       -2.1918325037       -1.2906101086
 H         -2.3098843525       -1.8848519811       -1.2936654746
 H         -2.5477052946       -3.1959090765       -0.1316461652
 H         -2.5085089872       -1.6543594590        1.7440717104
 H         -1.2319526829       -1.0147078848        0.7056523650
 H         -0.8286686335        2.7031347313        1.8899618782
 H         -1.4866680438        1.0825175285        2.1296869534
 H          1.1672690559        1.5562560629        2.2007887256
 H          0.5611334132        0.0309480187        1.5741116295
 H          0.8607835636        0.6994580943       -0.7003372466
 H          0.9223047848        3.5359856516        0.4057450332
 H          1.2839913727        3.1421536670       -1.2750425128
 H         -0.9153855210        2.4157361010       -1.7475420323
 H         -1.2206022237        3.7301586589       -0.6052826996
 H          3.3125348654        3.2787775015        0.5673906388
 H          0.8122551298       -1.6468792318       -0.6058050209
 H          1.6863067606       -4.1448164229       -0.9445395683
 H          6.7148832719       -0.2927568435        0.2615171373
 H         -6.9105461080       -1.0707302551       -1.0192793963
 H         -7.5989133072        0.4831448310       -0.5798018647
 H         -6.3380074508        0.4124711783       -1.8010153773
 H         -6.5216391986       -1.4421109689        1.4009227750
 H         -5.3053618258       -0.5054169013        2.2813336540
 H         -6.8924079309        0.1719751681        1.9663318031
  57
        -81.17552250
 C         -4.9399066588       -0.2516454556        2.7128255901
 C         -5.8482975230       -0.2246593762        1.4889224654
 C         -6.2194615967       -1.6285930869        1.0331005777
 N         -5.2082636797        0.5810089874        0.4012106476
 C         -6.0721973587        0.8152263770       -0.7891735452
 C         -5.4697613523       -0.0556046352       -1.8826537233
 C         -3.9729768766        0.0766779042       -1.6153060793
 C         -3.8862281644        0.0962032499       -0.0803514424
 C         -2.8504274312        1.1041217516        0.4440639735
 O         -3.2767820779        2.1211814814        1.0051044802
 N         -1.5619333731        0.8566662911        0.2612392683
 C         -1.0258857670       -0.3247443984       -0.3954367612
 C          0.4184424372       -0.5520630467        0.0353773933
 C          1.3108210950        0.6101365704       -0.4321123242
 C          0.5479025452        1.9389382965       -0.3158930717
 C         -0.5876028291        1.8484100030        0.6957549193
 N          2.5461317290        0.6103822389        0.3230414823
 C          2.8251162120        1.2302318646        1.5048533167
 N          4.0163927501        0.9936492009        1.9658462778
 C          4.5928222023        0.1454608414        1.0488380779
 C          3.6657343994       -0.1092781343        0.0114833511
 C          4.0353052383       -0.9648871995       -1.0277251635
 C          3.4875041812       -1.5166682250       -2.2142826324
 C          4.4537715992       -2.3123225074       -2.7587377470
 N          5.5728748925       -2.2925358731       -1.9808218354
 C          5.3549017568       -1.4813438668       -0.9127790253
 N          6.2449422142       -1.2410440800        0.0561746761
 C          5.8646974939       -0.4372510626        1.0266508422
 H         -3.6955628886       -0.8988526880        0.3184509262
 H          6.4283691652       -2.7919116964       -2.1557443602
 H         -6.7622485190        0.3173454561        1.7493743769
 H         -4.9536564523        1.5013457619        0.8357519462
 H         -7.1077467522        0.5750459932       -0.5634107320
 H         -6.0061302917        1.8665638683       -1.0688992951
 H         -5.7447391253        0.2912744618       -2.8746685269
 H         -5.7844369483       -1.0922826755       -1.7796485497
 H         -3.4081417197       -0.7444002480       -2.0456095241
 H         -3.5998477237        1.0152330263       -2.0256916062
 H         -1.6165601055       -1.1997679930       -0.1253919625
 H         -1.0606495100       -0.1947461317       -1.4812124576
 H          0.4737329521       -0.6344529991        1.1218506453
 H          0.7821482653       -1.4892136475       -0.3848095487
 H          1.6030172640        0.4549430781       -1.4747536330
 H          1.2284590775        2.7404490808       -0.0321440932
 H          0.1301000998        2.1968283403       -1.2890642950
 H         -1.1044627569        2.8065549648        0.7816873282
 H         -0.2105749840        1.5812129885        1.6872509424
 H          2.1278620182        1.8684637291        2.0091295235
 H          2.5100234720       -1.3534823725       -2.6198385860
 H          4.4201858429       -2.8976719746       -3.6559759147
 H          6.5840023782       -0.2472621015        1.8094648204
 H         -5.3496097777       -2.2069581203        0.7368970396
 H         -6.6885644777       -2.1471413960        1.8644122052
 H         -6.9312557477       -1.6129580904        0.2141237037
 H         -4.5765088343        0.7446452234        2.9548721348
 H         -5.4996346264       -0.6188273344        3.5677796337
 H         -4.0860473803       -0.9083972425        2.5719265381
  57
        -81.17535277
 C         -6.2035499835       -1.5793659411        1.2908981078
 C         -5.6795323471       -0.1969822674        1.6516411292
 C         -6.7489050143        0.6620197849        2.3132784975
 N         -5.1289867244        0.5295173804        0.4647379542
 C         -6.0298511836        0.6417481405       -0.7146563565
 C         -5.4250403492       -0.2908699479       -1.7546256541
 C         -3.9265905132       -0.0999088315       -1.5338136540
 C         -3.8107281718        0.0228409757       -0.0068297403
 C         -2.7753673741        1.0667267835        0.4439969199
 O         -3.2027586546        2.1066768931        0.9607228168
 N         -1.4879776576        0.8218665659        0.2507653051
 C         -0.9513172138       -0.3883988538       -0.3508989166
 C          0.5015081452       -0.5804055208        0.0687117977
 C          1.3759812707        0.5624406778       -0.4744490736
 C          0.6016274096        1.8885626624       -0.4199643704
 C         -0.5160818839        1.8442390755        0.6142961280
 N          2.6217500040        0.6160244102        0.2614331500
 C          2.9119712163        1.3056290751        1.4012051890
 N          4.1128725867        1.1085549791        1.8556421099
 C          4.6848515716        0.2156519322        0.9792547726
 C          3.7445885026       -0.1085627770       -0.0263552888
 C          4.1076092532       -1.0193554195       -1.0199582316
 C          3.5471757157       -1.6461313586       -2.1625756970
 C          4.5138861963       -2.4619989752       -2.6755088790
 N          5.6453468906       -2.3836566777       -1.9195094607
 C          5.4350118721       -1.5136315275       -0.8972579740
 N          6.3377545700       -1.2070580149        0.0407617103
 C          5.9633000798       -0.3528182421        0.9694757917
 H         -3.6074562952       -0.9432343111        0.4563545070
 H          6.5037288508       -2.8831998848       -2.0791258290
 H         -4.8418620644       -0.2974040141        2.3494251112
 H         -4.8856023913        1.4890390701        0.8108504717
 H         -7.0490837468        0.3813459042       -0.4473056448
 H         -6.0113295705        1.6704117522       -1.0733277240
 H         -5.7311430573       -0.0267223447       -2.7629058172
 H         -5.7108110359       -1.3241405484       -1.5668231249
 H         -3.3474515477       -0.9314981187       -1.9226111995
 H         -3.5903423346        0.8198126621       -2.0127978530
 H         -1.5300844179       -1.2523604657       -0.0251994043
 H         -1.0037549054       -0.3160890212       -1.4413115089
 H          0.5739607736       -0.6040289217        1.1570160966
 H          0.8669944850       -1.5358428386       -0.3062186462
 H          1.6550615074        0.3529893574       -1.5112304634
 H          1.2783366183        2.7111048290       -0.1929468583
 H          0.1652031075        2.0874644533       -1.3987438881
 H         -1.0405120607        2.8011815242        0.6567323957
 H         -0.1203908515        1.6348991871        1.6123999095
 H          2.2154519226        1.9644021968        1.8794227810
 H          2.5612120921       -1.5180651515       -2.5600966769
 H          4.4725170168       -3.1000898676       -3.5356948861
 H          6.6925922375       -0.1094658686        1.7278965845
 H         -7.0801189435        0.1833410887        3.2299798678
 H         -6.3536200074        1.6414123546        2.5727937253
 H         -7.6174902584        0.7918796548        1.6744759850
 H         -5.4576922665       -2.1755408720        0.7740390639
 H         -6.4644859241       -2.1015276869        2.2069190236
 H         -7.0988628738       -1.5242678141        0.6797036807
  57
        -81.17497855
 C         -5.5206197359       -0.9468004253       -1.1146631689
 C         -5.7554317930       -0.2071597797        0.1970072306
 C         -6.4594474072        1.1235403384       -0.0282727352
 N         -4.4597407160       -0.0529952101        0.9326102552
 C         -4.5919119163        0.5099380586        2.3066174928
 C         -3.9784843252        1.9004875840        2.2164680670
 C         -2.8075897473        1.6679103563        1.2667852931
 C         -3.3957986358        0.7072837922        0.2208829054
 C         -2.3843708446       -0.3434650074       -0.2712621575
 O         -2.5051468455       -1.4961758577        0.1613280769
 N         -1.4367247679        0.0038994231       -1.1290175707
 C         -0.5012018278       -1.0330442093       -1.5567199002
 C          0.7400845477       -0.4332114881       -2.2062676414
 C          1.2666884989        0.7543949243       -1.3898514581
 C          0.1819065172        1.8388522132       -1.2578295893
 C         -1.1981214643        1.3192420296       -1.6805197167
 N          1.7378349081        0.2906048433       -0.0991358625
 C          1.0338690767        0.1146719505        1.0535619903
 N          1.7232139828       -0.3782572198        2.0377900563
 C          2.9853693105       -0.5701649604        1.5256079215
 C          2.9999401536       -0.1599213842        0.1713341080
 C          4.1843281311       -0.2849964132       -0.5568277373
 C          4.6706614049       -0.0495524078       -1.8684968873
 C          5.9828780643       -0.4252583419       -1.8726711939
 N          6.3456720006       -0.8827414919       -0.6408288687
 C          5.2720925332       -0.8158759459        0.1893772744
 N          5.2745382026       -1.1975601175        1.4709068206
 C          4.1411798201       -1.0767469421        2.1292900657
 H         -3.8373659049        1.2491861385       -0.6138140806
 H          7.2546243337       -1.2233190215       -0.3766708251
 H         -6.3787366882       -0.8341539904        0.8413293825
 H         -4.0401610391       -1.0120939101        0.9856301517
 H         -5.6325757345        0.5139715475        2.6196115242
 H         -4.0180686478       -0.1076793576        2.9973967529
 H         -3.6569348734        2.2668546071        3.1872335621
 H         -4.6793056239        2.6157073440        1.7894245996
 H         -2.4429631102        2.5911543688        0.8256805104
 H         -1.9887870833        1.1882467175        1.8051569206
 H         -0.2295444462       -1.6238195002       -0.6759282445
 H         -1.0059294383       -1.7088685479       -2.2544169023
 H          1.5078629484       -1.2048486056       -2.2700380540
 H          0.5255621137       -0.0943467990       -3.2186417324
 H          2.1464853144        1.1675397389       -1.8898036214
 H          0.1547924485        2.1985574739       -0.2298119009
 H          0.4348706175        2.6859181076       -1.8934236508
 H         -1.2443821560        1.2418885953       -2.7697065450
 H         -1.9621406796        2.0186371170       -1.3557884021
 H         -0.0031087664        0.3639307544        1.1438125901
 H          4.1285355093        0.3386831373       -2.7067308491
 H          6.6895815881       -0.3976360410       -2.6781067074
 H          4.1461869324       -1.3906472670        3.1624896220
 H         -6.6691979258        1.6349136681        0.9055534124
 H         -5.8911251764        1.7847889990       -0.6753251225
 H         -7.4104294416        0.9297064901       -0.5160449828
 H         -6.4761280826       -1.2504923420       -1.5315464832
 H         -5.0226665915       -0.3208799822       -1.8499170307
 H         -4.9241599483       -1.8429739650       -0.9589013686
  57
        -81.17495353
 C         -4.8242063471       -0.5323517284        2.2468638517
 C         -5.7629880650       -0.3495397025        1.0604754398
 C         -6.0573866677       -1.6730700523        0.3683719148
 N         -5.1995843114        0.6721186917        0.1222691749
 C         -6.1121297095        1.0648445426       -0.9896747532
 C         -5.4522989006        0.5155782712       -2.2465028764
 C         -3.9702695207        0.7189774503       -1.9464817901
 C         -3.8659361224        0.3513869835       -0.4571180182
 C         -2.8562386037        1.2302417477        0.2997414546
 O         -3.3077973921        2.1729622643        0.9604341097
 N         -1.5653221704        0.9449764707        0.2115953305
 C         -0.6084524548        1.7514013155        0.9544800233
 C          0.4058654370        0.8428256324        1.6390304881
 C          1.2222943014        0.0361498307        0.6163420658
 C          0.4715303925       -0.0344231817       -0.7239289401
 C         -1.0256415868       -0.2056704729       -0.4987886481
 N          2.5434462318        0.5884959456        0.4031577423
 C          2.9289712273        1.8962132558        0.4007782220
 N          4.1826200329        2.0846085712        0.1172547438
 C          4.6924912677        0.8260434513       -0.1029293478
 C          3.6593751576       -0.1251729466        0.0660911663
 C          3.9498027748       -1.4768370998       -0.1269253735
 C          3.2933026404       -2.7340202678       -0.0968385423
 C          4.2335345187       -3.6746264852       -0.4040209512
 N          5.4391840444       -3.0791284346       -0.6270272184
 C          5.3051014669       -1.7362167738       -0.4691779810
 N          6.2933603908       -0.8483167881       -0.6231388757
 C          5.9872012579        0.4191090579       -0.4430273525
 H         -3.6493676801       -0.7069605781       -0.3266923679
 H          6.2973443700       -3.5442470147       -0.8704514987
 H         -6.7021365053        0.0779149009        1.4238863366
 H         -4.9831563628        1.5178170184        0.7008640501
 H         -7.1118892720        0.6741769652       -0.8196774503
 H         -6.1619247976        2.1523506963       -1.0371250565
 H         -5.7707011885        1.0467168488       -3.1389214556
 H         -5.6705134514       -0.5430950123       -2.3764427059
 H         -3.3399864755        0.0969986199       -2.5751429390
 H         -3.6931684575        1.7628759962       -2.0967274609
 H         -0.1142693580        2.4529690790        0.2767682526
 H         -1.1664023010        2.3309235381        1.6926040006
 H          1.0686538497        1.4382949510        2.2651914015
 H         -0.1283153798        0.1545310285        2.2942238227
 H          1.3844512327       -0.9743482420        1.0022978813
 H          0.6593647024        0.8784851409       -1.2907492398
 H          0.8481218215       -0.8698479568       -1.3135515892
 H         -1.1979060649       -1.1153591072        0.0868866649
 H         -1.5139164469       -0.3050948788       -1.4669111500
 H          2.2601878567        2.7031613187        0.6232568454
 H          2.2629817778       -2.9278965345        0.1208681273
 H          4.1245624441       -4.7381350740       -0.4801632423
 H          6.7859273913        1.1346855277       -0.5707681256
 H         -6.7455643295       -1.5520481159       -0.4618612541
 H         -5.1548173140       -2.1599563211        0.0119378889
 H         -6.5252843575       -2.3399999535        1.0868008144
 H         -3.9203553644       -1.0667877719        1.9683921191
 H         -4.5444851720        0.4263599679        2.6777129456
 H         -5.3264590370       -1.1101357239        3.0168988496
  57
        -81.17484412
 C         -6.8141431514       -0.1269814342        1.7847999393
 C         -5.5799859640       -0.5904949357        1.0191635528
 C         -4.4562349635       -0.8866009228        2.0054902966
 N         -5.1811061085        0.4773695210        0.0520330231
 C         -6.1774353127        0.7015190078       -1.0398498677
 C         -5.4197274195        0.4624804660       -2.3424875394
 C         -3.9982419665        0.8783373811       -1.9849718450
 C         -3.8404851427        0.3016425891       -0.5724488590
 C         -2.8575052012        1.1283517174        0.2686972677
 O         -3.3306892893        2.0269486728        0.9718803367
 N         -1.5618816620        0.8582389474        0.1880403097
 C         -0.6273038971        1.6171040638        1.0054363884
 C          0.3853392286        0.6694881372        1.6374321682
 C          1.2290671550       -0.0469510147        0.5707950438
 C          0.5015554004       -0.0239634023       -0.7839580677
 C         -0.9968917904       -0.2290247061       -0.5985861031
 N          2.5460670552        0.5358721810        0.4229545243
 C          2.9167013125        1.8431347053        0.5344244827
 N          4.1719189340        2.0671179337        0.2858931575
 C          4.6987515623        0.8365696868       -0.0315689736
 C          3.6744263798       -0.1359149633        0.0437359785
 C          3.9823472632       -1.4637006622       -0.2576365353
 C          3.3397513026       -2.7256804761       -0.3412211121
 C          4.2937576742       -3.6272323001       -0.7157513431
 N          5.4948191165       -3.0025776732       -0.8738390950
 C          5.3442076969       -1.6793850682       -0.6041236161
 N          6.3242055713       -0.7716398926       -0.6707637946
 C          6.0018508157        0.4728895053       -0.3884256654
 H         -3.5890261951       -0.7571365593       -0.6088513268
 H          6.3601974003       -3.4367530821       -1.1466684786
 H         -5.8076785042       -1.4854116824        0.4323223553
 H         -5.0537897172        1.3516883707        0.6084533504
 H         -7.0133991763        0.0152036286       -0.9329643015
 H         -6.5470369732        1.7237968007       -0.9864845726
 H         -5.8303169428        1.0429281850       -3.1635573542
 H         -5.4448550555       -0.5909507144       -2.6183965811
 H         -3.2629833900        0.4876686567       -2.6820923585
 H         -3.9108806840        1.9651324730       -1.9575239717
 H         -0.1298650546        2.3730531301        0.3915875403
 H         -1.2047251049        2.1341092351        1.7743193471
 H          1.0299617091        1.2212454237        2.3200227128
 H         -0.1524338378       -0.0731714128        2.2270603499
 H          1.3981757696       -1.0820555803        0.8813181173
 H          0.6867946429        0.9316304977       -1.2764387671
 H          0.8985484242       -0.8076782807       -1.4286775941
 H         -1.1663448537       -1.1833682131       -0.0877370335
 H         -1.4677656391       -0.2599875916       -1.5803423854
 H          2.2358260623        2.6220970597        0.8129679201
 H          2.3094112938       -2.9478109430       -0.1524832660
 H          4.1982424911       -4.6816895066       -0.8825053091
 H          6.7938913278        1.2047780689       -0.4459769216
 H         -4.8231166086       -1.5759779969        2.7600988573
 H         -3.5937615595       -1.3472123555        1.5344067176
 H         -4.1397967397        0.0230117565        2.5105178554
 H         -7.6462193054        0.1164550888        1.1321778097
 H         -7.1413848614       -0.9162083029        2.4548819121
 H         -6.5771125006        0.7466311930        2.3876613158
  57
        -81.17463586
 C         -7.3046624592       -0.5854271909       -0.2437548216
 C         -6.0286311339       -0.0945187385       -0.9188966102
 C         -5.2562919863       -1.2950739113       -1.4556361109
 N         -5.2151043176        0.6652439105        0.0803804937
 C         -5.8396438041        1.9505554513        0.5139999288
 C         -4.9046850545        3.0406997679        0.0043953897
 C         -3.5350170298        2.3884296079        0.1454989724
 C         -3.8093782442        0.9535158083       -0.3228865484
 C         -2.9311997061       -0.0747751708        0.4041678988
 O         -3.4635541302       -0.7546700563        1.2890803595
 N         -1.6487246329       -0.1755872914        0.0850972022
 C         -0.8200476944       -1.1045394363        0.8444092715
 C          0.6102724806       -0.5954274500        0.9210784762
 C          1.2384078687       -0.5804182305       -0.4829491327
 C          0.1813239514       -0.1909658910       -1.5269082806
 C         -0.9625043195        0.6186602964       -0.9191503786
 N          2.3882757912        0.2994326932       -0.4964972432
 C          2.4428377854        1.6340159020       -0.7698970353
 N          3.6218560856        2.1617508182       -0.6328515955
 C          4.4314868431        1.1275156340       -0.2250707716
 C          3.6566239217       -0.0520906782       -0.1276481352
 C          4.2760741124       -1.2327361324        0.2854107109
 C          3.9460154869       -2.5885173970        0.5407354123
 C          5.0980728155       -3.2041178692        0.9367513249
 N          6.1292062832       -2.3124630164        0.9452613429
 C          5.6651738816       -1.0962289620        0.5554096706
 N          6.4109684227        0.0097803537        0.4605331342
 C          5.7977695872        1.1090439927        0.0754603823
 H         -3.7252114395        0.8821931712       -1.4062711950
 H          7.0824694321       -2.5073307409        1.2008329586
 H         -6.2674692839        0.5955600486       -1.7334652260
 H         -5.0857430830        0.0239724781        0.8976284444
 H         -6.8395746573        2.0482735699        0.1009894551
 H         -5.8985943318        1.9720611619        1.6010065789
 H         -4.9947587267        3.9560246585        0.5819511268
 H         -5.1088209056        3.2697852371       -1.0408736496
 H         -2.7760215147        2.8784091390       -0.4563707679
 H         -3.2159161706        2.3940509303        1.1881108983
 H         -1.2536404893       -1.2019786074        1.8421625063
 H         -0.8446394463       -2.0908732433        0.3705237566
 H          0.6237903885        0.4130545724        1.3379816315
 H          1.1923278737       -1.2327241125        1.5856273456
 H          1.6250228652       -1.5754416900       -0.7216441006
 H          0.6451605417        0.3785605769       -2.3312847263
 H         -0.2298389022       -1.1002403482       -1.9647885831
 H         -1.6541952903        0.8935784147       -1.7137357014
 H         -0.5766902527        1.5340957723       -0.4605498793
 H          1.5918883928        2.2027382356       -1.0849375163
 H          2.9865571404       -3.0559246326        0.4501369427
 H          5.2548599208       -4.2270025822        1.2161276292
 H          6.4022415280        2.0009043218        0.0018574190
 H         -5.9303815939       -1.9155512494       -2.0384168135
 H         -4.4325693939       -1.0158084606       -2.1047668563
 H         -4.8715316645       -1.8985460469       -0.6367410257
 H         -7.8894834508        0.2188118034        0.1905874592
 H         -7.9303082045       -1.0874124250       -0.9755980495
 H         -7.0636853832       -1.3016072000        0.5384251733
  57
        -81.17459660
 C         -5.7253274285        1.5078403572        0.2891064412
 C         -5.6939387313       -0.0108040516        0.1632937888
 C         -6.0079017779       -0.6911987699        1.4882125834
 N         -4.3786065377       -0.4446984105       -0.4056899225
 C         -4.2915029750       -1.8966011409       -0.7312046724
 C         -3.3286867446       -2.4693611076        0.2997781293
 C         -2.3086503686       -1.3444654409        0.4450410679
 C         -3.1736809397       -0.0753453313        0.3864960674
 C         -2.4889859414        1.0623271207       -0.3902437650
 O         -2.9097394264        1.3062287590       -1.5273241580
 N         -1.4869001213        1.7237891832        0.1690970083
 C         -0.9095250479        1.4923436636        1.4750927512
 C          0.4928468195        0.8780280185        1.3333771013
 C          1.1538090035        1.3691733534        0.0317964196
 C          0.6863534919        2.7938762393       -0.2608609251
 C         -0.8042433995        2.7518333035       -0.6078405539
 N          2.5911657527        1.2592350748        0.1264912092
 C          3.5045909009        2.2084873295        0.4773581880
 N          4.7298588334        1.7794666411        0.5244222535
 C          4.6561969686        0.4455215336        0.1950556427
 C          3.3059684278        0.1076386425       -0.0525204097
 C          2.9916146718       -1.2071408106       -0.3985057942
 C          1.8553283445       -1.9942127813       -0.7152392737
 C          2.3077927500       -3.2597564340       -0.9537758207
 N          3.6613229694       -3.3098133756       -0.8030820873
 C          4.1154572549       -2.0749019439       -0.4641015539
 N          5.3976147911       -1.7684376320       -0.2378051950
 C          5.6626168827       -0.5211052714        0.0886023343
 H         -3.4784468859        0.2493530205        1.3794014235
 H          4.2448096253       -4.1206212218       -0.9214754412
 H         -6.4415405406       -0.3123052976       -0.5763461819
 H         -4.2409275309        0.1171720774       -1.2802059248
 H         -5.2769872655       -2.3538038391       -0.7051469806
 H         -3.8774025700       -2.0079422397       -1.7331498550
 H         -2.8761898346       -3.3972925389       -0.0379727402
 H         -3.8290755494       -2.6532274571        1.2487396904
 H         -1.7437058443       -1.4177714731        1.3694201237
 H         -1.6133550294       -1.3607042653       -0.3949164535
 H         -0.8396419485        2.4620508558        1.9734057530
 H         -1.5427082244        0.8480550448        2.0771113533
 H          1.1055992194        1.1826943142        2.1823625635
 H          0.4513473923       -0.2103342000        1.3288078406
 H          0.8543013652        0.7271342037       -0.8048715865
 H          0.8611533499        3.4253430113        0.6098339096
 H          1.2390291093        3.2148299456       -1.1000172104
 H         -0.9507295379        2.5141313043       -1.6641059741
 H         -1.2670506195        3.7238917481       -0.4145158972
 H          3.2371380982        3.2241414468        0.6871928285
 H          0.8369941303       -1.6695520564       -0.7688549641
 H          1.7549618698       -4.1373895538       -1.2232399809
 H          6.6983780361       -0.2758911587        0.2713717817
 H         -6.9894269938       -0.3634150973        1.8184759376
 H         -6.0395873008       -1.7716249226        1.3915626160
 H         -5.2978151775       -0.4249828832        2.2653138103
 H         -5.3925862229        1.9853904370       -0.6297839371
 H         -6.7435835883        1.8312102318        0.4830122572
 H         -5.1053535613        1.8608751678        1.1084083389
  57
        -81.17456398
 C         -6.1260603378       -1.6596232458        0.5654657004
 C         -5.6382828009       -0.3637213366        1.1972452464
 C         -6.7214384277        0.3058617138        2.0323000130
 N         -5.1315411120        0.6073947753        0.1779289421
 C         -6.0569921261        0.9278737959       -0.9443629426
 C         -5.4034996927        0.3133160743       -2.1738494332
 C         -3.9186498603        0.5353951897       -1.8989891859
 C         -3.8028449146        0.2510844003       -0.3931604181
 C         -2.7872158608        1.1591268599        0.3223079206
 O         -3.2374525952        2.1128902384        0.9684935237
 N         -1.4953641437        0.8844470980        0.2197819573
 C         -0.5347890730        1.7233699329        0.9214091516
 C          0.5080591332        0.8494044332        1.6080170734
 C          1.3138811577        0.0247593917        0.5911239920
 C          0.5351246782       -0.0954132702       -0.7293238466
 C         -0.9543279339       -0.2802544549       -0.4664416012
 N          2.6217874673        0.5896719600        0.3343442047
 C          2.9821637435        1.9031498356        0.2718109363
 N          4.2290037608        2.1026159911       -0.0328997850
 C          4.7607437694        0.8455529489       -0.2039019271
 C          3.7479243705       -0.1168976154        0.0168689661
 C          4.0629159711       -1.4698721563       -0.1212189267
 C          3.4313185289       -2.7370387189       -0.0321691444
 C          4.3871589787       -3.6716795399       -0.3078627973
 N          5.5791418200       -3.0631951503       -0.5662652944
 C          5.4201986917       -1.7176059000       -0.4644962065
 N          6.3897532521       -0.8185442180       -0.6655085559
 C          6.0601900571        0.4493843106       -0.5384768403
 H         -3.5882497244       -0.8002042672       -0.2019346239
 H          6.4440041865       -3.5219449509       -0.7975385782
 H         -4.7852547187       -0.5775030351        1.8492265129
 H         -4.9150926597        1.4882930380        0.7021201651
 H         -7.0498792152        0.5355819013       -0.7486683374
 H         -6.1201227350        2.0102483792       -1.0505640174
 H         -5.7302679489        0.7935671961       -3.0917758564
 H         -5.6231098548       -0.7507971148       -2.2427740035
 H         -3.2945349895       -0.1204053512       -2.4985920118
 H         -3.6444051838        1.5695396822       -2.1093016624
 H         -0.0663107710        2.4137610859        0.2146130079
 H         -1.0853336584        2.3143119029        1.6560789731
 H          1.1758193775        1.4728399612        2.2009209771
 H         -0.0006979352        0.1730268193        2.2950041410
 H          1.4992122382       -0.9713978034        1.0027206109
 H          0.6974908285        0.8029548360       -1.3263651467
 H          0.9103784196       -0.9427664232       -1.3025249059
 H         -1.1025911596       -1.1732682390        0.1502928827
 H         -1.4615076831       -0.4159563412       -1.4200519632
 H          2.2999891963        2.7058527090        0.4673863177
 H          2.4065750484       -2.9412383076        0.2019563079
 H          4.2987428690       -4.7394115276       -0.3387507443
 H          6.8431094617        1.1743188969       -0.7053049812
 H         -6.3489222905        1.2196908127        2.4893819979
 H         -7.6002552916        0.5432545405        1.4400306700
 H         -7.0293034347       -0.3641210652        2.8294470471
 H         -5.3784342734       -2.1024520810       -0.0853765353
 H         -6.3387911506       -2.3729967312        1.3563317133
 H         -7.0423267314       -1.5145223159        0.0019522539
  57
        -81.17448866
 C         -4.6132795449       -1.9814472884       -1.3982263172
 C         -5.6194853445       -0.8379038594       -1.3521673329
 C         -5.7726515608       -0.1686967690       -2.7108677558
 N         -5.2351495275        0.1312533231       -0.2779786859
 C         -6.2423161036        1.1988543515       -0.0161519710
 C         -5.5844314764        2.4818228235       -0.5034961252
 C         -4.1258150319        2.2623374683       -0.1138687649
 C         -3.9008830447        0.7740814244       -0.4307289021
 C         -2.9850414974        0.0871394346        0.5974894992
 O         -3.5285649903       -0.6039953560        1.4675438200
 N         -1.6746077765        0.2634511089        0.5234609097
 C         -0.9824408271        1.0055670718       -0.5174696724
 C          0.2986800935        1.6152826200        0.0473829309
 C          1.2817462205        0.5464392437        0.5477975992
 C          0.5218030396       -0.7443063222        0.8985692932
 C         -0.8294953336       -0.4039341700        1.5062928916
 N          2.3257723204        0.2553801333       -0.4125177579
 C          2.2606252852        0.2608637778       -1.7743191816
 N          3.3557341600       -0.1115653937       -2.3653474791
 C          4.2300855552       -0.4056995225       -1.3454047972
 C          3.5831427597       -0.1848882177       -0.1067138590
 C          4.2855122140       -0.4339258536        1.0735642306
 C          4.0834557795       -0.3848139775        2.4768082707
 C          5.2528319798       -0.7862583239        3.0552618167
 N          6.1738917958       -1.0853259017        2.0958451405
 C          5.6187524973       -0.8844931617        0.8719802898
 N          6.2446620676       -1.0899446259       -0.2917654088
 C          5.5546247456       -0.8540372535       -1.3875678848
 H         -3.5368540348        0.6316527482       -1.4462465884
 H          7.1142417953       -1.4061106699        2.2528267344
 H         -6.5884924767       -1.2417357689       -1.0442778757
 H         -5.0996457298       -0.4336370316        0.5948369686
 H         -7.1780640713        0.9733623322       -0.5206707864
 H         -6.4245971656        1.2550743520        1.0567500039
 H         -6.0108299848        3.3626178143       -0.0320345238
 H         -5.6767591563        2.5874069671       -1.5831351076
 H         -3.4560885562        2.9145036104       -0.6668333212
 H         -3.9879663632        2.4435453468        0.9525341130
 H         -0.7474021262        0.3323111555       -1.3484747590
 H         -1.6154784511        1.8099598168       -0.8837318569
 H          0.7757421918        2.2333894223       -0.7120707032
 H          0.0341387781        2.2664858352        0.8800982267
 H          1.7947752194        0.9223759516        1.4377015154
 H          0.3837742521       -1.3436520069       -0.0029431008
 H          1.1010416226       -1.3405164752        1.6025193306
 H         -0.6984637835        0.2446843344        2.3781733305
 H         -1.3475541500       -1.3071959300        1.8362017747
 H          1.3874837859        0.5594095791       -2.3176749830
 H          3.1942328461       -0.0957148180        2.9993290608
 H          5.4938263324       -0.8803861083        4.0954561963
 H          6.0615120240       -1.0238364024       -2.3258748143
 H         -6.1130231647       -0.9134019405       -3.4246460179
 H         -6.5112060433        0.6260829805       -2.6900642862
 H         -4.8329728824        0.2301683385       -3.0807013027
 H         -4.4398644144       -2.3919174680       -0.4059347315
 H         -5.0026077173       -2.7779909429       -2.0251482601
 H         -3.6612861130       -1.6670608006       -1.8168315327
  57
        -81.17442128
 C         -5.9503699681       -1.8603866865        0.2624719407
 C         -5.5024043109       -0.6787421587        1.1108589150
 C         -6.5675739869       -0.2641655501        2.1168922093
 N         -5.1233908573        0.5051529644        0.2777833060
 C         -6.1370331474        0.9672053193       -0.7112963153
 C         -5.5247070348        0.6556394966       -2.0695886211
 C         -4.0421747762        0.9278017601       -1.8294890047
 C         -3.8152979288        0.3608665026       -0.4195567802
 C         -2.8085949113        1.1765293788        0.4095252440
 O         -3.2684248273        1.9588834213        1.2496618142
 N         -1.5130719119        1.0069323514        0.1884296362
 C         -0.5501637386        1.7472452957        0.9885829973
 C          0.5067185710        0.7933919470        1.5342832769
 C          1.2800840321        0.0921524834        0.4024993088
 C          0.5269442430        0.2357356534       -0.9290767158
 C         -0.9676608878        0.0176442505       -0.7311959168
 N          2.6253891883        0.6053179634        0.2610784885
 C          3.0322889538        1.9062352814        0.2967610337
 N          4.3045596765        2.0750303501        0.0978538434
 C          4.8062594360        0.8090745161       -0.0976828796
 C          3.7485907550       -0.1261238458       -0.0049520219
 C          4.0305958019       -1.4816269554       -0.1858558751
 C          3.3555272241       -2.7293465275       -0.2068075357
 C          4.3006681770       -3.6829332611       -0.4525694346
 N          5.5273824399       -3.1048415014       -0.5883844310
 C          5.4024044381       -1.7606211766       -0.4348571142
 N          6.4127766434       -0.8882279700       -0.5157971171
 C          6.1146416560        0.3831966460       -0.3511736736
 H         -3.5305563567       -0.6904236715       -0.4567147320
 H          6.3931449584       -3.5817323223       -0.7747426424
 H         -4.5971428877       -0.9517421235        1.6624104933
 H         -4.9280715240        1.2819736956        0.9523066967
 H         -7.0879003530        0.4696611470       -0.5489501983
 H         -6.2769907801        2.0414350198       -0.5965695643
 H         -5.9378745877        1.2814596756       -2.8554511110
 H         -5.6816013896       -0.3873716609       -2.3393119179
 H         -3.4164642509        0.4504287104       -2.5774806774
 H         -3.8467534786        2.0003994025       -1.8403969936
 H         -0.0953459207        2.5337735610        0.3809669235
 H         -1.0949859211        2.2225320025        1.8063425122
 H          1.1954211785        1.3426811858        2.1750249233
 H          0.0138740926        0.0433421151        2.1530074663
 H          1.3938648514       -0.9671241721        0.6462006295
 H          0.7107442712        1.2270991108       -1.3445847967
 H          0.9050538312       -0.4948936553       -1.6439608884
 H         -1.1298718742       -0.9876601269       -0.3276567214
 H         -1.4628396027        0.0993165010       -1.6982189059
 H          2.3614243048        2.7209952400        0.4825640015
 H          2.3097731463       -2.9102297632       -0.0642755062
 H          4.1820706726       -4.7444902417       -0.5412571670
 H          6.9312500472        1.0864698198       -0.4199185422
 H         -6.2224625820        0.5678795845        2.7262285540
 H         -7.4957182538        0.0194922948        1.6295812152
 H         -6.7816237442       -1.0968537326        2.7801604445
 H         -6.9110968060       -1.6782729149       -0.2086501598
 H         -5.2238941583       -2.1107497506       -0.5044414842
 H         -6.0619515525       -2.7278168074        0.9065291056
