  57

 C         -6.5948845148       -0.8179903798       -0.3788315990
 C         -5.5070929983       -0.0143382888        0.3238658013
 C         -5.5035287542        1.4196080776       -0.1934623457
 N         -4.1789859751       -0.6455109653        0.0794939492
 C         -4.0978091356       -2.0842624363        0.4328227223
 C         -2.6082122633       -2.3233449020        0.6180182500
 C         -2.1842339762       -1.0690724323        1.3762248915
 C         -3.0197929428        0.0427202742        0.7177332881
 C         -2.2759713626        0.7491581080       -0.4348807034
 O         -2.6232397113        0.4723590058       -1.5869825297
 N         -1.3287712489        1.6323926138       -0.1494016571
 C         -0.6231770886        2.3104415485       -1.2228248472
 C          0.8425297685        1.8842266001       -1.2463440791
 C          1.4905452097        2.1245360228        0.1222919359
 C          0.6574939400        1.5200559067        1.2598057933
 C         -0.8043397933        1.9622480918        1.1588566728
 N          2.8322399594        1.5855185075        0.1507280736
 C          3.9664170730        2.3119795899        0.3568407996
 N          5.0585496399        1.6124859076        0.3771589623
 C          4.6499784225        0.3156458514        0.1733351809
 C          3.2411598790        0.2824375067        0.0231164767
 C          2.6305193847       -0.9588126054       -0.1985973921
 C          1.3392956953       -1.5110237839       -0.4188106462
 C          1.4984018821       -2.8599714299       -0.5523347850
 N          2.8125451865       -3.1895060209       -0.4260986689
 C          3.5344012719       -2.0579483318       -0.2179200496
 N          4.8625974652       -2.0342524192       -0.0685330699
 C          5.4133160765       -0.8552257563        0.1191035858
 H         -3.3758866446        0.7711723460        1.4448441940
 H          3.2074956958       -4.1126175101       -0.4884213185
 H         -5.6784615745       -0.0268297297        1.4048492913
 H         -3.9586528770       -0.5341193270       -0.9425946942
 H         -4.6285266913       -2.2419747568        1.3727310908
 H         -4.5366800740       -2.6997732747       -0.3475402083
 H         -2.1043410025       -2.3779532130       -0.3473678369
 H         -2.4007719295       -3.2345061902        1.1707627052
 H         -2.4480850154       -1.1596841724        2.4290102592
 H         -1.1159436229       -0.8908499609        1.3049014151
 H         -1.1060526892        2.0597348798       -2.1677606702
 H         -0.6976809792        3.3885005562       -1.0573168546
 H          0.9196224696        0.8311731710       -1.5120941601
 H          1.3731212169        2.4560286588       -2.0080166258
 H          1.5879584341        3.2041447519        0.2837186562
 H          0.7309673091        0.4344861641        1.2143160646
 H          1.0666280152        1.8413356917        2.2178877430
 H         -0.8624231059        3.0479495164        1.2806081403
 H         -1.3827515489        1.4897439030        1.9476516726
 H          3.9432096934        3.3759654604        0.4907815059
 H          0.4074201614       -0.9912653760       -0.5058469984
 H          0.7586220394       -3.6145324371       -0.7302633761
 H          6.4866486859       -0.8284306282        0.2347440862
 H         -6.4955752547        1.8457020634       -0.0797870223
 H         -4.8092756877        2.0580919132        0.3444606117
 H         -5.2463152829        1.4431047114       -1.2501818436
 H         -6.3883914510       -0.8942607966       -1.4434204984
 H         -6.7033334491       -1.8142570249        0.0368837953
 H         -7.5468593919       -0.3091422259       -0.2610616231
