      -----------------------------------------------------------      
     |                   =====================                   |     
     |                           x T B                           |     
     |                   =====================                   |     
     |                         S. Grimme                         |     
     |          Mulliken Center for Theoretical Chemistry        |     
     |                    University of Bonn                     |     
      -----------------------------------------------------------      

   * xtb version 6.7.1 (edcfbbe) compiled by 'conda@c0858423619e' on 2025-09-04

   xtb is free software: you can redistribute it and/or modify it under
   the terms of the GNU Lesser General Public License as published by
   the Free Software Foundation, either version 3 of the License, or
   (at your option) any later version.
   
   xtb is distributed in the hope that it will be useful,
   but WITHOUT ANY WARRANTY; without even the implied warranty of
   MERCHANTABILITY or FITNESS FOR A PARTICULAR PURPOSE.  See the
   GNU Lesser General Public License for more details.
   
   Cite this work as:
   * C. Bannwarth, E. Caldeweyher, S. Ehlert, A. Hansen, P. Pracht,
     J. Seibert, S. Spicher, S. Grimme, WIREs Comput. Mol. Sci., 2020, 11,
     e01493. DOI: 10.1002/wcms.1493
   
   for GFN2-xTB:
   * C. Bannwarth, S. Ehlert and S. Grimme., J. Chem. Theory Comput., 2019,
     15, 1652-1671. DOI: 10.1021/acs.jctc.8b01176
   for GFN1-xTB:
   * S. Grimme, C. Bannwarth, P. Shushkov, J. Chem. Theory Comput., 2017,
     13, 1989-2009. DOI: 10.1021/acs.jctc.7b00118
   for GFN0-xTB:
   * P. Pracht, E. Caldeweyher, S. Ehlert, S. Grimme, ChemRxiv, 2019, preprint.
     DOI: 10.26434/chemrxiv.8326202.v1
   for GFN-FF:
   * S. Spicher and S. Grimme, Angew. Chem. Int. Ed., 2020, 59, 15665-15673.
     DOI: 10.1002/anie.202004239
   
   for ALPB and GBSA implicit solvation:
   * S. Ehlert, M. Stahn, S. Spicher, S. Grimme, J. Chem. Theory Comput.,
     2021, 17, 4250-4261. DOI: 10.1021/acs.jctc.1c00471
   
   for ddCOSMO and CPCM-X implicit solvation:
   * M. Stahn, S. Ehlert, S. Grimme, J. Phys. Chem. A,
     2023, XX, XXXX-XXXX. DOI: 10.1021/acs.jpca.3c04382
   
   for DFT-D4:
   * E. Caldeweyher, C. Bannwarth and S. Grimme, J. Chem. Phys., 2017,
     147, 034112. DOI: 10.1063/1.4993215
   * E. Caldeweyher, S. Ehlert, A. Hansen, H. Neugebauer, S. Spicher,
     C. Bannwarth and S. Grimme, J. Chem. Phys., 2019, 150, 154122.
     DOI: 10.1063/1.5090222
   * E. Caldeweyher, J.-M. Mewes, S. Ehlert and S. Grimme, Phys. Chem. Chem. Phys.
     2020, 22, 8499-8512. DOI: 10.1039/D0CP00502A
   
   for sTDA-xTB:
   * S. Grimme and C. Bannwarth, J. Chem. Phys., 2016, 145, 054103.
     DOI: 10.1063/1.4959605
   
   in the mass-spec context:
   * V. Asgeirsson, C. Bauer and S. Grimme, Chem. Sci., 2017, 8, 4879.
     DOI: 10.1039/c7sc00601b
   * J. Koopman and S. Grimme, ACS Omega 2019, 4, 12, 15120-15133.
     DOI: 10.1021/acsomega.9b02011
   
   for metadynamics refer to:
   * S. Grimme, J. Chem. Theory Comput., 2019, 155, 2847-2862
     DOI: 10.1021/acs.jctc.9b00143
   
   for SPH calculations refer to:
   * S. Spicher and S. Grimme, J. Chem. Theory Comput., 2021, 17, 1701-1714
     DOI: 10.1021/acs.jctc.0c01306
   
   for ONIOM refer to:
   * C. Plett, A. Katbashev, S. Ehlert, S. Grimme, M. Bursch,
     Phys. Chem. Chem. Phys., 2023, 25, 17860-17868. DOI: 10.1039/D3CP02178E
   
   for DIPRO refer to:
   * J. Kohn, N. Gildemeister, S. Grimme, D. Fazzi, A. Hansen,
     J. Chem. Phys., 2023, just accepted.
   
   for PTB refer to:
   * S. Grimme, M. Mueller, A. Hansen, J. Chem. Phys., 2023, 158, 124111.
     DOI: 10.1063/5.0137838
   
   with help from (in alphabetical order)
   P. Atkinson, C. Bannwarth, F. Bohle, G. Brandenburg, E. Caldeweyher
   M. Checinski, S. Dohm, S. Ehlert, S. Ehrlich, I. Gerasimov, C. Hölzer
   A. Katbashev, J. Kohn, J. Koopman, C. Lavigne, S. Lehtola, F. März, M. Müller,
   F. Musil, H. Neugebauer, J. Pisarek, C. Plett, P. Pracht, F. Pultar,
   J. Seibert, P. Shushkov, S. Spicher, M. Stahn, M. Steiner, T. Strunk,
   J. Stückrath, T. Rose, and J. Unsleber
   
 * started run on 2026/04/18 at 21:51:49.283     
   ID    Z sym.   atoms
    1    6 C      1-3, 5-9, 12-16, 18, 20-24, 26, 28
    2    7 N      4, 11, 17, 19, 25, 27
    3    8 O      10
    4    1 H      29-57

           -------------------------------------------------
          |                Calculation Setup                |
           -------------------------------------------------

          program call               : xtb /home/vranova/Crest-on-PL-REX-dataset/data/01_data/batch_1_results/007-JAK1__4E5W/crest1/crest_best.xyz --opt vtight --cycles 500 --gfn2 --alpb h2o --chrg 1
          hostname                   : d018
          coordinate file            : /home/vranova/Crest-on-PL-REX-dataset/data/01_data/batch_1_results/007-JAK1__4E5W/crest1/crest_best.xyz
          omp threads                :                     1


           -------------------------------------------------
          |                 G F N 2 - x T B                 |
           -------------------------------------------------

        Reference                      10.1021/acs.jctc.8b01176
      * Hamiltonian:
        H0-scaling (s, p, d)           1.850000    2.230000    2.230000
        zeta-weighting                 0.500000
      * Dispersion:
        s8                             2.700000
        a1                             0.520000
        a2                             5.000000
        s9                             5.000000
      * Repulsion:
        kExp                           1.500000    1.000000
        rExp                           1.000000
      * Coulomb:
        alpha                          2.000000
        third order                    shell-resolved
        anisotropic                    true
        a3                             3.000000
        a5                             4.000000
        cn-shift                       1.200000
        cn-exp                         4.000000
        max-rad                        5.000000

      * Solvation model:               ALPB
        Solvent                        h2o
        Parameter file                 internal GFN2-xTB/ALPB
        Dielectric constant                8.0200E+01
        Reference state                gsolv [1 M gas/solution]
        Free energy shift                  1.0808E-03 Eh       6.7819E-01 kcal/mol
        Temperature                        2.9815E+02 K
        Density                            1.0000E+00 kg/L
        Solvent mass                       1.8000E+01 g/mol
        Interaction kernel             P16
        Born radius scaling (c1)           1.4744E+00
        Born radii integrator          GBOBC
        Born offset                        0.0000E+00 a0       0.0000E+00 AA
        H-bond correction              true
        Ion screening                  false
        Surface tension                    1.0000E-05 Eh       1.5569E+01 dyn/cm
        Grid points                               230 per atom

          ...................................................
          :                      SETUP                      :
          :.................................................:
          :  # basis functions                 141          :
          :  # atomic orbitals                 141          :
          :  # shells                           85          :
          :  # electrons                       148          :
          :  max. iterations                   250          :
          :  Hamiltonian                  GFN2-xTB          :
          :  restarted?                      false          :
          :  GBSA solvation                   true          :
          :  PC potential                    false          :
          :  electronic temp.          300.0000000     K    :
          :  accuracy                    1.0000000          :
          :  -> integral cutoff          0.2500000E+02      :
          :  -> integral neglect         0.1000000E-07      :
          :  -> SCF convergence          0.1000000E-05 Eh   :
          :  -> wf. convergence          0.1000000E-03 e    :
          :  Broyden damping             0.4000000          :
          :  net charge                          1          :
          :  unpaired electrons                  0          :
          ...................................................

 iter      E             dE          RMSdq      gap      omega  full diag
   1    -82.0496145 -0.820496E+02  0.349E+00    2.84       0.0  T
   2    -82.3027555 -0.253141E+00  0.230E+00    3.44       1.0  T
   3    -82.3172649 -0.145094E-01  0.129E+00    3.44       1.0  T
   4    -82.3170253  0.239619E-03  0.282E-01    3.29       1.0  T
   5    -82.3195389 -0.251363E-02  0.885E-02    3.31       1.0  T
   6    -82.3196749 -0.135943E-03  0.463E-02    3.30       1.0  T
   7    -82.3196863 -0.114631E-04  0.190E-02    3.31       1.0  T
   8    -82.3196902 -0.384618E-05  0.640E-03    3.31       2.1  T
   9    -82.3196906 -0.438743E-06  0.369E-03    3.31       3.6  T
  10    -82.3196908 -0.125315E-06  0.137E-03    3.31       9.7  T
  11    -82.3196908 -0.261983E-07  0.596E-04    3.31      22.2  T
  12    -82.3196908 -0.448752E-08  0.287E-04    3.31      46.2  T

   *** convergence criteria satisfied after 12 iterations ***

         #    Occupation            Energy/Eh            Energy/eV
      -------------------------------------------------------------
         1        2.0000           -0.7327193             -19.9383
       ...           ...                  ...                  ...
        68        2.0000           -0.4273224             -11.6280
        69        2.0000           -0.4183559             -11.3840
        70        2.0000           -0.4162700             -11.3273
        71        2.0000           -0.3882386             -10.5645
        72        2.0000           -0.3829592             -10.4209
        73        2.0000           -0.3771392             -10.2625
        74        2.0000           -0.3719676             -10.1218 (HOMO)
        75                         -0.2504195              -6.8143 (LUMO)
        76                         -0.2389049              -6.5009
        77                         -0.2205160              -6.0005
        78                         -0.1826073              -4.9690
        79                         -0.1627554              -4.4288
       ...                                ...                  ...
       141                          0.7407194              20.1560
      -------------------------------------------------------------
                  HL-Gap            0.1215481 Eh            3.3075 eV
             Fermi-level           -0.3111936 Eh           -8.4680 eV

 SCC (total)                   0 d,  0 h,  0 min,  0.069 sec
 SCC setup                      ...        0 min,  0.001 sec (  2.038%)
 Dispersion                     ...        0 min,  0.001 sec (  1.029%)
 classical contributions        ...        0 min,  0.000 sec (  0.222%)
 integral evaluation            ...        0 min,  0.008 sec ( 11.526%)
 iterations                     ...        0 min,  0.033 sec ( 48.279%)
 molecular gradient             ...        0 min,  0.025 sec ( 36.559%)
 printout                       ...        0 min,  0.000 sec (  0.333%)

         :::::::::::::::::::::::::::::::::::::::::::::::::::::
         ::                     SUMMARY                     ::
         :::::::::::::::::::::::::::::::::::::::::::::::::::::
         :: total energy             -81.183622683768 Eh    ::
         :: total w/o Gsasa/hb       -81.171907201896 Eh    ::
         :: gradient norm              0.000097386036 Eh/a0 ::
         :: HOMO-LUMO gap              3.307492382765 eV    ::
         ::.................................................::
         :: SCC energy               -82.318417028809 Eh    ::
         :: -> isotropic ES            0.167072020007 Eh    ::
         :: -> anisotropic ES         -0.006796710316 Eh    ::
         :: -> anisotropic XC          0.045093295566 Eh    ::
         :: -> dispersion             -0.064491279924 Eh    ::
         :: -> Gsolv                  -0.103220599233 Eh    ::
         ::    -> Gelec               -0.091505117362 Eh    ::
         ::    -> Gsasa               -0.006302201380 Eh    ::
         ::    -> Ghb                 -0.006494040190 Eh    ::
         ::    -> Gshift               0.001080759698 Eh    ::
         :: repulsion energy           1.134794345042 Eh    ::
         :: add. restraining           0.000000000000 Eh    ::
         :: total charge               1.000000000000 e     ::
         :::::::::::::::::::::::::::::::::::::::::::::::::::::

      ----------------------------------------------------------- 
     |                   =====================                   |
     |                        A N C O P T                        |
     |                   =====================                   |
     |               Approximate Normal Coordinate               |
     |                Rational Function Optimizer                |
      ----------------------------------------------------------- 
      ----------------------------------------------------------- 
     |                   =====================                   |
     |                        A N C O P T                        |
     |                   =====================                   |
     |               Approximate Normal Coordinate               |
     |                Rational Function Optimizer                |
      ----------------------------------------------------------- 

          ...................................................
          :                      SETUP                      :
          :.................................................:
          :   optimization level         verytight          :
          :   max. optcycles                   500          :
          :   ANC micro-cycles                  20          :
          :   degrees of freedom               165          :
          :.................................................:
          :   RF solver                   davidson          :
          :   write xtbopt.log                true          :
          :   linear?                        false          :
          :   energy convergence         0.1000000E-06 Eh   :
          :   grad. convergence          0.2000000E-03 Eh/α :
          :   maxmium RF displ.          1.0000000          :
          :   Hlow (freq-cutoff)         0.1000000E-01      :
          :   Hmax (freq-cutoff)         5.0000000          :
          :   S6 in model hess.         20.0000000          :
          ...................................................

generating ANC from exact Hessian ...
Using Lindh-Hessian (1995)
 Shifting diagonal of input Hessian by    9.8008034606135736E-003
 Lowest  eigenvalues of input Hessian
    0.000000    0.000000    0.000000    0.000000    0.000000    0.000000
    0.010000    0.010124    0.010381    0.010684    0.011167    0.011533
    0.012507    0.013463    0.014401    0.015905    0.016131    0.016770
 Highest eigenvalues
    2.042880    2.130995    2.177975    2.209769    2.301442    2.309450


........................................................................
.............................. CYCLE    1 ..............................
........................................................................

 iter      E             dE          RMSdq      gap      omega  full diag
   1    -82.3196908 -0.823197E+02  0.109E-04    3.31       0.0  T
   2    -82.3196908 -0.787139E-10  0.704E-05    3.31     188.1  T
   3    -82.3196908 -0.124771E-10  0.451E-05    3.31     293.4  T
     SCC iter.                  ...        0 min,  0.009 sec
     gradient                   ...        0 min,  0.025 sec
 * total energy  :   -81.1836227 Eh     change       -0.1439261E-08 Eh
   gradient norm :     0.0000962 Eh/α   predicted     0.0000000E+00 (-100.00%)
   displ. norm   :     0.0020503 α      lambda       -0.1269948E-07
   maximum displ.:     0.0010497 α      in ANC's #3, #1, #5, ...

   *** GEOMETRY OPTIMIZATION CONVERGED AFTER 1 ITERATIONS ***

------------------------------------------------------------------------
 total energy gain   :        -0.0000000 Eh       -0.0000 kcal/mol
 total RMSD          :         0.0000000 a0        0.0000 Å
 total power (kW/mol):        -0.0000038 (step)   -0.0000 (real)
------------------------------------------------------------------------

 ANCopt (total)                0 d,  0 h,  0 min,  0.095 sec
 optimizer setup                ...        0 min,  0.017 sec ( 18.437%)
 model hessian                  ...        0 min,  0.031 sec ( 32.371%)
 ANC generation                 ...        0 min,  0.002 sec (  2.236%)
 coordinate transformation      ...        0 min,  0.000 sec (  0.011%)
 single point calculation       ...        0 min,  0.044 sec ( 46.719%)
 optimization log               ...        0 min,  0.000 sec (  0.094%)
 hessian update                 ...        0 min,  0.000 sec (  0.001%)
 rational function              ...        0 min,  0.000 sec (  0.069%)

================
 final structure:
================
57
 xtb: 6.7.1 (edcfbbe)
C           -6.59488451480000       -0.81799037980000       -0.37883159900000
C           -5.50709299830000       -0.01433828880000        0.32386580130000
C           -5.50352875420000        1.41960807760000       -0.19346234570000
N           -4.17898597510000       -0.64551096530000        0.07949394920000
C           -4.09780913560000       -2.08426243630000        0.43282272230000
C           -2.60821226330000       -2.32334490200000        0.61801825000000
C           -2.18423397620000       -1.06907243230000        1.37622489150000
C           -3.01979294280000        0.04272027420000        0.71773328810000
C           -2.27597136260000        0.74915810800000       -0.43488070340000
O           -2.62323971130000        0.47235900580000       -1.58698252970000
N           -1.32877124890000        1.63239261380000       -0.14940165710000
C           -0.62317708860000        2.31044154850000       -1.22282484720000
C            0.84252976850000        1.88422660010000       -1.24634407910000
C            1.49054520970000        2.12453602280000        0.12229193590000
C            0.65749394000000        1.52005590670000        1.25980579330000
C           -0.80433979330000        1.96224809180000        1.15885667280000
N            2.83223995940000        1.58551850750000        0.15072807360000
C            3.96641707300000        2.31197958990000        0.35684079960000
N            5.05854963990000        1.61248590760000        0.37715896230000
C            4.64997842250000        0.31564585140000        0.17333518090000
C            3.24115987900000        0.28243750670000        0.02311647670000
C            2.63051938470000       -0.95881260540000       -0.19859739210000
C            1.33929569530000       -1.51102378390000       -0.41881064620000
C            1.49840188210000       -2.85997142990000       -0.55233478500000
N            2.81254518650000       -3.18950602090000       -0.42609866890000
C            3.53440127190000       -2.05794833180000       -0.21792004960000
N            4.86259746520000       -2.03425241920000       -0.06853306990000
C            5.41331607650000       -0.85522575630000        0.11910358580000
H           -3.37588664460000        0.77117234600000        1.44484419400000
H            3.20749569580000       -4.11261751010000       -0.48842131850000
H           -5.67846157450000       -0.02682972970000        1.40484929130000
H           -3.95865287700000       -0.53411932700000       -0.94259469420000
H           -4.62852669130000       -2.24197475680000        1.37273109080000
H           -4.53668007400000       -2.69977327470000       -0.34754020830000
H           -2.10434100250000       -2.37795321300000       -0.34736783690000
H           -2.40077192950000       -3.23450619020000        1.17076270520000
H           -2.44808501540000       -1.15968417240000        2.42901025920000
H           -1.11594362290000       -0.89084996090000        1.30490141510000
H           -1.10605268920000        2.05973487980000       -2.16776067020000
H           -0.69768097920000        3.38850055620000       -1.05731685460000
H            0.91962246960000        0.83117317100000       -1.51209416010000
H            1.37312121690000        2.45602865880000       -2.00801662580000
H            1.58795843410000        3.20414475190000        0.28371865620000
H            0.73096730910000        0.43448616410000        1.21431606460000
H            1.06662801520000        1.84133569170000        2.21788774300000
H           -0.86242310590000        3.04794951640000        1.28060814030000
H           -1.38275154890000        1.48974390300000        1.94765167260000
H            3.94320969340000        3.37596546040000        0.49078150590000
H            0.40742016140000       -0.99126537600000       -0.50584699840000
H            0.75862203940000       -3.61453243710000       -0.73026337610000
H            6.48664868590000       -0.82843062820000        0.23474408620000
H           -6.49557525470000        1.84570206340000       -0.07978702230000
H           -4.80927568770000        2.05809191320000        0.34446061170000
H           -5.24631528290000        1.44310471140000       -1.25018184360000
H           -6.38839145100000       -0.89426079660000       -1.44342049840000
H           -6.70333344910000       -1.81425702490000        0.03688379530000
H           -7.54685939190000       -0.30914222590000       -0.26106162310000

 Bond Distances (Angstroems)
 ---------------------------
C1-C2=1.5241         C1-H55=1.0871        C1-H56=1.0850        C1-H57=1.0858        C2-C1=1.5241         C2-C3=1.5244         
C2-N4=1.4906         C2-H31=1.0946        C3-C2=1.5244         C3-H52=1.0856        C3-H53=1.0858        C3-H54=1.0878        
N4-C2=1.4906         N4-C5=1.4837         N4-C8=1.4916         N4-H32=1.0515        C5-N4=1.4837         C5-C6=1.5200         
C5-H33=1.0909        C5-H34=1.0865        C6-C5=1.5200         C6-C7=1.5257         C6-H35=1.0903        C6-H36=1.0857        
C7-C6=1.5257         C7-C8=1.5388         C7-H37=1.0891        C7-H38=1.0854        C8-N4=1.4916         C8-C7=1.5388         
C8-C9=1.5430         C8-H29=1.0891        C9-C8=1.5430         C9-O10=1.2347        C9-N11=1.3262        O10-C9=1.2347        
N11-C9=1.3262        N11-C12=1.4525       N11-C16=1.4475       C12-N11=1.4525       C12-C13=1.5266       C12-H39=1.0904       
C12-H40=1.0932       C13-C12=1.5266       C13-C14=1.5332       C13-H41=1.0888       C13-H42=1.0902       C14-C13=1.5332       
C14-C15=1.5340       C14-N17=1.4462       C14-H43=1.0959       C15-C14=1.5340       C15-C16=1.5306       C15-H44=1.0890       
C15-H45=1.0902       C16-N11=1.4475       C16-C15=1.5306       C16-H46=1.0940       C16-H47=1.0863       N17-C14=1.4462       
N17-C18=1.3626       N17-C21=1.3717       C18-N17=1.3626       C18-N19=1.2971       C18-H48=1.0726       N19-C18=1.2971       
N19-C20=1.3749       C20-N19=1.3749       C20-C21=1.4172       C20-C28=1.3988       C21-N17=1.3717       C21-C20=1.4172       
C21-C22=1.4010       C22-C21=1.4010       C22-C23=1.4215       C22-C26=1.4232       C23-C22=1.4215       C23-C24=1.3648       
C23-H49=1.0706       C24-C23=1.3648       C24-N25=1.3607       C24-H50=1.0716       N25-C24=1.3607       N25-C26=1.3582       
N25-H30=1.0060       C26-C22=1.4232       C26-N25=1.3582       C26-N27=1.3368       N27-C26=1.3368       N27-C28=1.3148       
C28-C20=1.3988       C28-N27=1.3148       C28-H51=1.0799       H29-C8=1.0891        H30-N25=1.0060       H31-C2=1.0946        
H32-N4=1.0515        H33-C5=1.0909        H34-C5=1.0865        H35-C6=1.0903        H36-C6=1.0857        H37-C7=1.0891        
H38-C7=1.0854        H39-C12=1.0904       H40-C12=1.0932       H41-C13=1.0888       H42-C13=1.0902       H43-C14=1.0959       
H44-C15=1.0890       H45-C15=1.0902       H46-C16=1.0940       H47-C16=1.0863       H48-C18=1.0726       H49-C23=1.0706       
H50-C24=1.0716       H51-C28=1.0799       H52-C3=1.0856        H53-C3=1.0858        H54-C3=1.0878        H55-C1=1.0871        
H56-C1=1.0850        H57-C1=1.0858        
 C  H  Rav=1.0867 sigma=0.0063  Rmin=1.0706  Rmax=1.0959    27
 C  C  Rav=1.4829 sigma=0.0623  Rmin=1.3648  Rmax=1.5430    16
 N  H  Rav=1.0287 sigma=0.0228  Rmin=1.0060  Rmax=1.0515     2
 N  C  Rav=1.3943 sigma=0.0652  Rmin=1.2971  Rmax=1.4916    15
 O  C  Rav=1.2347 sigma=0.0000  Rmin=1.2347  Rmax=1.2347     1

 selected bond angles (degree)
 --------------------
H55-C1-C2=110.67               H56-C1-C2=112.26               H56-C1-H55=109.26              H57-C1-C2=109.19               
H57-C1-H55=107.80              H57-C1-H56=107.53              C3-C2-C1=109.95                N4-C2-C1=109.70                
N4-C2-C3=109.91                H31-C2-C1=109.73               H31-C2-C3=110.26               H31-C2-N4=107.25               
H52-C3-C2=109.36               H53-C3-C2=112.74               H53-C3-H52=107.55              H54-C3-C2=110.52               
H54-C3-H52=108.02              H54-C3-H53=108.50              C5-N4-C2=114.85                C8-N4-C2=115.27                
C8-N4-C5=107.64                H32-N4-C2=107.53               H32-N4-C5=108.83               H32-N4-C8=101.78               
C6-C5-N4=103.60                H33-C5-N4=108.59               H33-C5-C6=110.43               H34-C5-N4=110.87               
H34-C5-C6=113.22               H34-C5-H33=109.90              C7-C6-C5=101.75                H35-C6-C5=110.66               
H35-C6-C7=110.66               H36-C6-C5=112.41               H36-C6-C7=112.57               H36-C6-H35=108.69              
C8-C7-C6=103.32                H37-C7-C6=110.16               H37-C7-C8=110.01               H38-C7-C6=112.08               
H38-C7-C8=112.81               H38-C7-H37=108.40              C7-C8-N4=105.77                C9-C8-N4=105.44                
C9-C8-C7=112.87                H29-C8-N4=109.89               H29-C8-C7=112.03               H29-C8-C9=110.49               
O10-C9-C8=117.31               N11-C9-C8=119.24               N11-C9-O10=123.44              

 selected dihedral angles (degree)
 ---------------------------------
C3-C2-C1-H55= 63.88           C3-C2-C1-H56=186.24           C3-C2-C1-H57=305.38           N4-C2-C1-H55=302.90           
N4-C2-C1-H56= 65.26           N4-C2-C1-H57=184.40           H31-C2-C1-H55=185.31          H31-C2-C1-H56=307.68          
H31-C2-C1-H57= 66.82          H52-C3-C2-C1= 54.89           H52-C3-C2-N4=175.74           H52-C3-C2-H31=293.77          
H53-C3-C2-C1=174.48           H53-C3-C2-N4=295.34           H53-C3-C2-H31= 53.37          H54-C3-C2-C1=296.10           
H54-C3-C2-N4= 56.96           H54-C3-C2-H31=174.99          C5-N4-C2-C1=306.17            C5-N4-C2-C3=185.16            
C5-N4-C2-H31= 65.28           C8-N4-C2-C1=180.15            C8-N4-C2-C3= 59.15            C8-N4-C2-H31=299.27           
H32-N4-C2-C1= 67.45           H32-N4-C2-C3=306.44           H32-N4-C2-H31=186.57          C6-C5-N4-C2=201.43            
C6-C5-N4-C8=331.30            C6-C5-N4-H32= 80.86           H33-C5-N4-C2=318.84           H33-C5-N4-C8= 88.70           
H33-C5-N4-H32=198.26          H34-C5-N4-C2= 79.67           H34-C5-N4-C8=209.54           H34-C5-N4-H32=319.10          
C7-C6-C5-N4= 41.61            C7-C6-C5-H33=285.50           C7-C6-C5-H34=161.78           H35-C6-C5-N4=284.00           
H35-C6-C5-H33=167.89          H35-C6-C5-H34= 44.17          H36-C6-C5-N4=162.26           H36-C6-C5-H33= 46.15          
H36-C6-C5-H34=282.43          C8-C7-C6-C5=321.43            C8-C7-C6-H35= 79.04           C8-C7-C6-H36=200.88           
H37-C7-C6-C5= 78.91           H37-C7-C6-H35=196.53          H37-C7-C6-H36=318.37          H38-C7-C6-C5=199.69           
H38-C7-C6-H35=317.31          H38-C7-C6-H36= 79.15          C7-C8-N4-C2=133.91            C7-C8-N4-C5=  4.28            
C7-C8-N4-H32=249.93           C9-C8-N4-C2=253.71            C9-C8-N4-C5=124.08            C9-C8-N4-H32=  9.74           
H29-C8-N4-C2= 12.80           H29-C8-N4-C5=243.17           H29-C8-N4-H32=128.83          N4-C8-C7-C6= 21.63            
N4-C8-C7-H37=264.04           N4-C8-C7-H38=142.87           C9-C8-C7-C6=266.83            C9-C8-C7-H37=149.24           
C9-C8-C7-H38= 28.07           H29-C8-C7-C6=141.34           H29-C8-C7-H37= 23.74          H29-C8-C7-H38=262.57          
O10-C9-C8-N4=349.99           O10-C9-C8-C7=104.99           O10-C9-C8-H29=231.31          N11-C9-C8-N4=168.57           
N11-C9-C8-C7=283.57           N11-C9-C8-H29= 49.89          
           -------------------------------------------------
          |                Final Singlepoint                |
           -------------------------------------------------

          ...................................................
          :                      SETUP                      :
          :.................................................:
          :  # basis functions                 141          :
          :  # atomic orbitals                 141          :
          :  # shells                           85          :
          :  # electrons                       148          :
          :  max. iterations                   250          :
          :  Hamiltonian                  GFN2-xTB          :
          :  restarted?                      false          :
          :  GBSA solvation                   true          :
          :  PC potential                    false          :
          :  electronic temp.          300.0000000     K    :
          :  accuracy                    1.0000000          :
          :  -> integral cutoff          0.2500000E+02      :
          :  -> integral neglect         0.1000000E-07      :
          :  -> SCF convergence          0.1000000E-05 Eh   :
          :  -> wf. convergence          0.1000000E-03 e    :
          :  Broyden damping             0.4000000          :
          :  net charge                          1          :
          :  unpaired electrons                  0          :
          ...................................................

 iter      E             dE          RMSdq      gap      omega  full diag
   1    -82.3196908 -0.823197E+02  0.121E-05    3.31       0.0  T
   2    -82.3196908 -0.171951E-11  0.774E-06    3.31    1712.0  T
   3    -82.3196908 -0.412115E-12  0.512E-06    3.31    2586.4  T

   *** convergence criteria satisfied after 3 iterations ***

         #    Occupation            Energy/Eh            Energy/eV
      -------------------------------------------------------------
         1        2.0000           -0.7327166             -19.9382
       ...           ...                  ...                  ...
        68        2.0000           -0.4273198             -11.6280
        69        2.0000           -0.4183561             -11.3840
        70        2.0000           -0.4162688             -11.3273
        71        2.0000           -0.3882391             -10.5645
        72        2.0000           -0.3829591             -10.4208
        73        2.0000           -0.3771383             -10.2625
        74        2.0000           -0.3719669             -10.1217 (HOMO)
        75                         -0.2504177              -6.8142 (LUMO)
        76                         -0.2389025              -6.5009
        77                         -0.2205165              -6.0006
        78                         -0.1826064              -4.9690
        79                         -0.1627549              -4.4288
       ...                                ...                  ...
       141                          0.7407185              20.1560
      -------------------------------------------------------------
                  HL-Gap            0.1215493 Eh            3.3075 eV
             Fermi-level           -0.3111923 Eh           -8.4680 eV

 SCC (total)                   0 d,  0 h,  0 min,  0.042 sec
 SCC setup                      ...        0 min,  0.001 sec (  2.870%)
 Dispersion                     ...        0 min,  0.000 sec (  0.982%)
 classical contributions        ...        0 min,  0.000 sec (  0.358%)
 integral evaluation            ...        0 min,  0.007 sec ( 17.092%)
 iterations                     ...        0 min,  0.008 sec ( 18.855%)
 molecular gradient             ...        0 min,  0.025 sec ( 59.392%)
 printout                       ...        0 min,  0.000 sec (  0.427%)

         :::::::::::::::::::::::::::::::::::::::::::::::::::::
         ::                     SUMMARY                     ::
         :::::::::::::::::::::::::::::::::::::::::::::::::::::
         :: total energy             -81.183622685244 Eh    ::
         :: total w/o Gsasa/hb       -81.171906948729 Eh    ::
         :: gradient norm              0.000096606002 Eh/a0 ::
         :: HOMO-LUMO gap              3.307523925171 eV    ::
         ::.................................................::
         :: SCC energy               -82.318417030285 Eh    ::
         :: -> isotropic ES            0.167073457940 Eh    ::
         :: -> anisotropic ES         -0.006797426970 Eh    ::
         :: -> anisotropic XC          0.045093286525 Eh    ::
         :: -> dispersion             -0.064491336300 Eh    ::
         :: -> Gsolv                  -0.103221467687 Eh    ::
         ::    -> Gelec               -0.091505731172 Eh    ::
         ::    -> Gsasa               -0.006302201380 Eh    ::
         ::    -> Ghb                 -0.006494294833 Eh    ::
         ::    -> Gshift               0.001080759698 Eh    ::
         :: repulsion energy           1.134794345042 Eh    ::
         :: add. restraining           0.000000000000 Eh    ::
         :: total charge               1.000000000000 e     ::
         :::::::::::::::::::::::::::::::::::::::::::::::::::::

           -------------------------------------------------
          |                Property Printout                |
           -------------------------------------------------

    * Orbital Energies and Occupations

         #    Occupation            Energy/Eh            Energy/eV
      -------------------------------------------------------------
         1        2.0000           -0.7327166             -19.9382
       ...           ...                  ...                  ...
        62        2.0000           -0.4580275             -12.4636
        63        2.0000           -0.4550269             -12.3819
        64        2.0000           -0.4547362             -12.3740
        65        2.0000           -0.4515538             -12.2874
        66        2.0000           -0.4432832             -12.0624
        67        2.0000           -0.4410089             -12.0005
        68        2.0000           -0.4273198             -11.6280
        69        2.0000           -0.4183561             -11.3840
        70        2.0000           -0.4162688             -11.3273
        71        2.0000           -0.3882391             -10.5645
        72        2.0000           -0.3829591             -10.4208
        73        2.0000           -0.3771383             -10.2625
        74        2.0000           -0.3719669             -10.1217 (HOMO)
        75                         -0.2504177              -6.8142 (LUMO)
        76                         -0.2389025              -6.5009
        77                         -0.2205165              -6.0006
        78                         -0.1826064              -4.9690
        79                         -0.1627549              -4.4288
        80                         -0.0826580              -2.2492
        81                         -0.0799593              -2.1758
        82                         -0.0282806              -0.7696
        83                         -0.0228040              -0.6205
        84                         -0.0179140              -0.4875
        85                         -0.0031221              -0.0850
       ...                                ...                  ...
       141                          0.7407185              20.1560
      -------------------------------------------------------------
                  HL-Gap            0.1215493 Eh            3.3075 eV
             Fermi-level           -0.3111923 Eh           -8.4680 eV

     #   Z          covCN         q      C6AA      α(0)
     1   6 C        3.756    -0.145    23.361     6.891
     2   6 C        3.785     0.032    20.055     6.379
     3   6 C        3.756    -0.140    23.255     6.876
     4   7 N        3.596     0.022    20.858     6.783
     5   6 C        3.777    -0.035    21.229     6.565
     6   6 C        3.827    -0.077    21.951     6.667
     7   6 C        3.831    -0.078    21.965     6.668
     8   6 C        3.814    -0.006    20.670     6.471
     9   6 C        2.765     0.258    22.656     7.795
    10   8 O        0.859    -0.505    23.905     6.555
    11   7 N        2.736    -0.048    22.163     6.992
    12   6 C        3.763    -0.016    20.900     6.516
    13   6 C        3.806    -0.076    21.942     6.668
    14   6 C        3.792     0.037    19.968     6.364
    15   6 C        3.807    -0.079    22.001     6.677
    16   6 C        3.753    -0.027    21.114     6.553
    17   7 N        2.823    -0.040    22.002     6.967
    18   6 C        3.177     0.095    25.520     8.249
    19   7 N        1.879    -0.327    29.325     8.028
    20   6 C        3.217     0.035    26.544     8.380
    21   6 C        3.101     0.034    27.106     8.532
    22   6 C        3.099    -0.046    29.009     8.827
    23   6 C        3.015    -0.084    30.074     8.996
    24   6 C        3.042    -0.002    28.045     8.686
    25   7 N        2.782    -0.116    23.530     7.204
    26   6 C        3.109     0.117    25.290     8.239
    27   7 N        1.834    -0.302    28.673     7.935
    28   6 C        2.910     0.040    27.106     8.537
    29   1 H        0.925     0.107     1.724     2.053
    30   1 H        0.860     0.222     0.998     1.565
    31   1 H        0.924     0.089     1.891     2.150
    32   1 H        0.857     0.271     0.806     1.406
    33   1 H        0.924     0.104     1.753     2.071
    34   1 H        0.925     0.104     1.752     2.070
    35   1 H        0.924     0.067     2.122     2.278
    36   1 H        0.925     0.085     1.932     2.174
    37   1 H        0.925     0.085     1.924     2.169
    38   1 H        0.925     0.077     2.013     2.218
    39   1 H        0.924     0.089     1.888     2.149
    40   1 H        0.924     0.072     2.064     2.247
    41   1 H        0.925     0.069     2.101     2.267
    42   1 H        0.924     0.056     2.242     2.342
    43   1 H        0.924     0.063     2.160     2.299
    44   1 H        0.925     0.071     2.073     2.252
    45   1 H        0.925     0.067     2.124     2.279
    46   1 H        0.924     0.084     1.939     2.178
    47   1 H        0.925     0.093     1.849     2.126
    48   1 H        0.926     0.047     2.354     2.399
    49   1 H        0.926     0.052     2.291     2.367
    50   1 H        0.926     0.067     2.121     2.277
    51   1 H        0.926     0.030     2.588     2.516
    52   1 H        0.925     0.075     2.031     2.229
    53   1 H        0.925     0.059     2.215     2.328
    54   1 H        0.925     0.064     2.150     2.293
    55   1 H        0.925     0.066     2.129     2.282
    56   1 H        0.925     0.071     2.075     2.253
    57   1 H        0.925     0.074     2.041     2.234

 Mol. C6AA /au·bohr⁶  :      31328.600583
 Mol. C8AA /au·bohr⁸  :     723339.290427
 Mol. α(0) /au        :        269.467927


Wiberg/Mayer (AO) data.
largest (>0.10) Wiberg bond orders for each atom

 ---------------------------------------------------------------------------
     #   Z sym  total        # sym  WBO       # sym  WBO       # sym  WBO
 ---------------------------------------------------------------------------
     1   6 C    3.984 --     2 C    1.010    55 H    0.982    56 H    0.980
                            57 H    0.977
     2   6 C    3.939 --     3 C    1.011     1 C    1.010    31 H    0.958
                             4 N    0.926
     3   6 C    3.986 --     2 C    1.011    54 H    0.981    53 H    0.980
                            52 H    0.977
     4   7 N    3.751 --     8 C    0.944     5 C    0.941     2 C    0.926
                            32 H    0.835
     5   6 C    3.930 --     6 C    1.010    34 H    0.967    33 H    0.966
                             4 N    0.941
     6   6 C    3.988 --     5 C    1.010     7 C    1.005    35 H    0.975
                            36 H    0.969
     7   6 C    3.982 --     6 C    1.005     8 C    0.977    37 H    0.972
                            38 H    0.966
     8   6 C    3.948 --     7 C    0.977    29 H    0.946     4 N    0.944
                             9 C    0.943
     9   6 C    3.954 --    10 O    1.570    11 N    1.346     8 C    0.943
    10   8 O    1.973 --     9 C    1.570    11 N    0.194
    11   7 N    3.571 --     9 C    1.346    16 C    0.983    12 C    0.978
                            10 O    0.194
    12   6 C    3.961 --    13 C    0.998    11 N    0.978    39 H    0.964
                            40 H    0.963
    13   6 C    3.990 --    12 C    0.998    14 C    0.986    42 H    0.972
                            41 H    0.967
    14   6 C    3.959 --    13 C    0.986    15 C    0.985    17 N    0.966
                            43 H    0.961
    15   6 C    3.989 --    16 C    0.995    14 C    0.985    45 H    0.971
                            44 H    0.964
    16   6 C    3.957 --    15 C    0.995    11 N    0.983    47 H    0.962
                            46 H    0.961
    17   7 N    3.615 --    18 C    1.224    21 C    1.168    14 C    0.966
                            19 N    0.113
    18   6 C    3.957 --    19 N    1.591    17 N    1.224    48 H    0.961
    19   7 N    3.009 --    18 C    1.591    20 C    1.202    17 N    0.113
    20   6 C    3.974 --    28 C    1.297    21 C    1.272    19 N    1.202
    21   6 C    3.959 --    20 C    1.272    22 C    1.259    17 N    1.168
    22   6 C    3.975 --    21 C    1.259    23 C    1.243    26 C    1.235
    23   6 C    3.969 --    24 C    1.579    22 C    1.243    49 H    0.961
    24   6 C    3.941 --    23 C    1.579    25 N    1.220    50 H    0.967
    25   7 N    3.562 --    24 C    1.220    26 C    1.207    30 H    0.922
    26   6 C    3.960 --    27 N    1.300    22 C    1.235    25 N    1.207
    27   7 N    3.039 --    28 C    1.501    26 C    1.300
    28   6 C    3.983 --    27 N    1.501    20 C    1.297    51 H    0.963
    29   1 H    0.989 --     8 C    0.946
    30   1 H    0.950 --    25 N    0.922
    31   1 H    0.992 --     2 C    0.958
    32   1 H    0.926 --     4 N    0.835
    33   1 H    0.989 --     5 C    0.966
    34   1 H    0.989 --     5 C    0.967
    35   1 H    0.996 --     6 C    0.975
    36   1 H    0.992 --     6 C    0.969
    37   1 H    0.992 --     7 C    0.972
    38   1 H    0.994 --     7 C    0.966
    39   1 H    0.991 --    12 C    0.964
    40   1 H    0.994 --    12 C    0.963
    41   1 H    0.995 --    13 C    0.967
    42   1 H    0.996 --    13 C    0.972
    43   1 H    0.995 --    14 C    0.961
    44   1 H    0.995 --    15 C    0.964
    45   1 H    0.995 --    15 C    0.971
    46   1 H    0.993 --    16 C    0.961
    47   1 H    0.991 --    16 C    0.962
    48   1 H    0.997 --    18 C    0.961
    49   1 H    0.997 --    23 C    0.961
    50   1 H    0.995 --    24 C    0.967
    51   1 H    0.998 --    28 C    0.963
    52   1 H    0.994 --     3 C    0.977
    53   1 H    0.997 --     3 C    0.980
    54   1 H    0.996 --     3 C    0.981
    55   1 H    0.996 --     1 C    0.982
    56   1 H    0.995 --     1 C    0.980
    57   1 H    0.994 --     1 C    0.977
 ---------------------------------------------------------------------------

Topologies differ in total number of bonds
Writing topology from bond orders to xtbtopo.mol

molecular dipole:
                 x           y           z       tot (Debye)
 q only:       -8.806      -0.670       1.600
   full:       -8.917      -0.409       1.523      23.017
molecular quadrupole (traceless):
                xx          xy          yy          xz          yz          zz
 q only:       19.601       9.453       7.142     -15.812       1.788     -26.744
  q+dip:       12.613       9.330      12.714     -17.532       3.124     -25.327
   full:       12.449       9.131      11.070     -17.311       2.417     -23.519

           -------------------------------------------------
          |                Geometry Summary                 |
           -------------------------------------------------

      molecular mass/u    :      381.4953598
   center of mass at/Å    :       -0.0000000      -0.0000000      -0.0000000
  moments of inertia/u·Å² :        0.1337107E+04   0.4967625E+04   0.5877573E+04
rotational constants/cm⁻¹ :        0.1260754E-01   0.3393499E-02   0.2868128E-02

 * 60 selected distances

     #   Z          #   Z                                           value/Å
     1   6 C        2   6 C                                       1.5241165
     2   6 C        3   6 C                                       1.5244159
     2   6 C        4   7 N                                       1.4906258
     4   7 N        5   6 C                                       1.4837241
     5   6 C        6   6 C                                       1.5199859
     6   6 C        7   6 C                                       1.5257243
     4   7 N        8   6 C                                       1.4915564
     7   6 C        8   6 C                                       1.5387831 (max)
     9   6 C       10   8 O                                       1.2347275
     9   6 C       11   7 N                                       1.3261937
    11   7 N       12   6 C                                       1.4525327
    12   6 C       13   6 C                                       1.5266006
    13   6 C       14   6 C                                       1.5332441
    14   6 C       15   6 C                                       1.5340498
    11   7 N       16   6 C                                       1.4475404
    15   6 C       16   6 C                                       1.5305826
    14   6 C       17   7 N                                       1.4461997
    17   7 N       18   6 C                                       1.3625660
    18   6 C       19   7 N                                       1.2970960
    19   7 N       20   6 C                                       1.3748706
    17   7 N       21   6 C                                       1.3716853
    20   6 C       21   6 C                                       1.4171939
    21   6 C       22   6 C                                       1.4009786
    22   6 C       23   6 C                                       1.4215098
    23   6 C       24   6 C                                       1.3648456
    24   6 C       25   7 N                                       1.3606989
    22   6 C       26   6 C                                       1.4231920
    25   7 N       26   6 C                                       1.3582480
    26   6 C       27   7 N                                       1.3367810
    20   6 C       28   6 C                                       1.3987731
    27   7 N       28   6 C                                       1.3147634
     8   6 C       29   1 H                                       1.0890985
    25   7 N       30   1 H                                       1.0059846 (min)
     2   6 C       31   1 H                                       1.0945541
     4   7 N       32   1 H                                       1.0514847
     5   6 C       33   1 H                                       1.0908539
     5   6 C       34   1 H                                       1.0864749
     6   6 C       35   1 H                                       1.0903389
     6   6 C       36   1 H                                       1.0857131
     7   6 C       37   1 H                                       1.0891213
     7   6 C       38   1 H                                       1.0854007
    12   6 C       39   1 H                                       1.0903791
    12   6 C       40   1 H                                       1.0932315
    13   6 C       41   1 H                                       1.0888012
    13   6 C       42   1 H                                       1.0902432
    14   6 C       43   1 H                                       1.0959485
    15   6 C       44   1 H                                       1.0890039
    15   6 C       45   1 H                                       1.0901984
    16   6 C       46   1 H                                       1.0940498
    16   6 C       47   1 H                                       1.0862864
    18   6 C       48   1 H                                       1.0726345
    23   6 C       49   1 H                                       1.0705682
    24   6 C       50   1 H                                       1.0715854
    28   6 C       51   1 H                                       1.0798768
     3   6 C       52   1 H                                       1.0856494
     3   6 C       53   1 H                                       1.0858224
     3   6 C       54   1 H                                       1.0878268
     1   6 C       55   1 H                                       1.0871092
     1   6 C       56   1 H                                       1.0849553
     1   6 C       57   1 H                                       1.0858419

 * 5 distinct bonds (by element types)

   Z      Z             #   av. dist./Å        max./Å        min./Å
   1 H    6 C          27     1.0867247     1.0959485     1.0705682
   6 C    6 C          15     1.4789331     1.5387831     1.3648456
   1 H    7 N           2     1.0287347     1.0514847     1.0059846
   6 C    7 N          15     1.3943388     1.4915564     1.2970960
   6 C    8 O           1     1.2347275     1.2347275     1.2347275


optimized geometry written to: xtbopt.xyz


           -------------------------------------------------
          | TOTAL ENERGY              -81.183622685244 Eh   |
          | GRADIENT NORM               0.000096606002 Eh/α |
          | HOMO-LUMO GAP               3.307523925171 eV   |
           -------------------------------------------------

------------------------------------------------------------------------
 * finished run on 2026/04/18 at 21:51:50.594     
------------------------------------------------------------------------
 total:
 * wall-time:     0 d,  0 h,  0 min,  1.311 sec
 *  cpu-time:     0 d,  0 h,  0 min,  0.202 sec
 * ratio c/w:     0.154 speedup
 SCF:
 * wall-time:     0 d,  0 h,  0 min,  0.070 sec
 *  cpu-time:     0 d,  0 h,  0 min,  0.069 sec
 * ratio c/w:     0.996 speedup
 ANC optimizer:
 * wall-time:     0 d,  0 h,  0 min,  0.326 sec
 *  cpu-time:     0 d,  0 h,  0 min,  0.120 sec
 * ratio c/w:     0.369 speedup

