57
 energy: -81.183622685244 gnorm: 0.000096606002 xtb: 6.7.1 (edcfbbe)
C           -6.59488451480000       -0.81799037980000       -0.37883159900000
C           -5.50709299830000       -0.01433828880000        0.32386580130000
C           -5.50352875420000        1.41960807760000       -0.19346234570000
N           -4.17898597510000       -0.64551096530000        0.07949394920000
C           -4.09780913560000       -2.08426243630000        0.43282272230000
C           -2.60821226330000       -2.32334490200000        0.61801825000000
C           -2.18423397620000       -1.06907243230000        1.37622489150000
C           -3.01979294280000        0.04272027420000        0.71773328810000
C           -2.27597136260000        0.74915810800000       -0.43488070340000
O           -2.62323971130000        0.47235900580000       -1.58698252970000
N           -1.32877124890000        1.63239261380000       -0.14940165710000
C           -0.62317708860000        2.31044154850000       -1.22282484720000
C            0.84252976850000        1.88422660010000       -1.24634407910000
C            1.49054520970000        2.12453602280000        0.12229193590000
C            0.65749394000000        1.52005590670000        1.25980579330000
C           -0.80433979330000        1.96224809180000        1.15885667280000
N            2.83223995940000        1.58551850750000        0.15072807360000
C            3.96641707300000        2.31197958990000        0.35684079960000
N            5.05854963990000        1.61248590760000        0.37715896230000
C            4.64997842250000        0.31564585140000        0.17333518090000
C            3.24115987900000        0.28243750670000        0.02311647670000
C            2.63051938470000       -0.95881260540000       -0.19859739210000
C            1.33929569530000       -1.51102378390000       -0.41881064620000
C            1.49840188210000       -2.85997142990000       -0.55233478500000
N            2.81254518650000       -3.18950602090000       -0.42609866890000
C            3.53440127190000       -2.05794833180000       -0.21792004960000
N            4.86259746520000       -2.03425241920000       -0.06853306990000
C            5.41331607650000       -0.85522575630000        0.11910358580000
H           -3.37588664460000        0.77117234600000        1.44484419400000
H            3.20749569580000       -4.11261751010000       -0.48842131850000
H           -5.67846157450000       -0.02682972970000        1.40484929130000
H           -3.95865287700000       -0.53411932700000       -0.94259469420000
H           -4.62852669130000       -2.24197475680000        1.37273109080000
H           -4.53668007400000       -2.69977327470000       -0.34754020830000
H           -2.10434100250000       -2.37795321300000       -0.34736783690000
H           -2.40077192950000       -3.23450619020000        1.17076270520000
H           -2.44808501540000       -1.15968417240000        2.42901025920000
H           -1.11594362290000       -0.89084996090000        1.30490141510000
H           -1.10605268920000        2.05973487980000       -2.16776067020000
H           -0.69768097920000        3.38850055620000       -1.05731685460000
H            0.91962246960000        0.83117317100000       -1.51209416010000
H            1.37312121690000        2.45602865880000       -2.00801662580000
H            1.58795843410000        3.20414475190000        0.28371865620000
H            0.73096730910000        0.43448616410000        1.21431606460000
H            1.06662801520000        1.84133569170000        2.21788774300000
H           -0.86242310590000        3.04794951640000        1.28060814030000
H           -1.38275154890000        1.48974390300000        1.94765167260000
H            3.94320969340000        3.37596546040000        0.49078150590000
H            0.40742016140000       -0.99126537600000       -0.50584699840000
H            0.75862203940000       -3.61453243710000       -0.73026337610000
H            6.48664868590000       -0.82843062820000        0.23474408620000
H           -6.49557525470000        1.84570206340000       -0.07978702230000
H           -4.80927568770000        2.05809191320000        0.34446061170000
H           -5.24631528290000        1.44310471140000       -1.25018184360000
H           -6.38839145100000       -0.89426079660000       -1.44342049840000
H           -6.70333344910000       -1.81425702490000        0.03688379530000
H           -7.54685939190000       -0.30914222590000       -0.26106162310000
