  42
   -12.326454 !GC
 C          0.0000000000        0.0000000000        0.0000000000
 C          1.5298803678        0.0000000000        0.0000000000
 C          2.0565522555        1.4461293030        0.0000000000
 C          1.7656736655        2.1497900402        1.3263509770
 N          2.2482221184        1.3986315821        2.4648043855
 C          1.8023961543        0.0218363125        2.5295078938
 C          2.0551392478       -0.7538394630        1.2333701753
 S          3.7746780801        1.7177525228        3.0259095414
 O          4.6827316747        0.6069255976        2.7909860112
 O          4.1955035499        2.9954346753        2.4895735555
 C          3.5163154487        1.8905482082        4.7896779906
 N          2.0228300263       -0.6763485257       -1.2028218211
 C          1.2507047445       -1.2218404323       -2.1884790400
 N          1.9133103568       -1.7692406748       -3.1587258667
 C          3.2326649591       -1.5923022395       -2.8276856995
 C          3.3248348192       -0.9009810516       -1.5917718933
 C          4.6132374640       -0.6326858044       -1.1010589717
 C          5.2472561986       -0.0108957946        0.0107325712
 C          6.5936295686       -0.1254109861       -0.1792890159
 N          6.8498595844       -0.7806650491       -1.3442720097
 C          5.6699904377       -1.1052369210       -1.9336038748
 N          5.5815979056       -1.7574334479       -3.0957863954
 C          4.3666497190       -1.9973347560       -3.5363929961
 H          3.1349808355        1.4408861970       -0.1631975773
 H          1.5955646522        2.0045423988       -0.8159087366
 H          2.2772351694        3.1117207202        1.3522069806
 H          0.6935996138        2.3120554528        1.4584602419
 H          2.3512158281       -0.4548652461        3.3408140303
 H          0.7382649194        0.0279570575        2.7769895329
 H          1.5694049027       -1.7286212547        1.2994757504
 H          3.1266076747       -0.9181378383        1.1300804600
 H          0.1818240392       -1.2064395551       -2.1748440987
 H          4.8015757192        0.4682419428        0.8596599812
 H          7.3860270092        0.2248860866        0.4514156814
 H          4.2794445325       -2.5230939535       -4.4748852410
 H          7.7554371208       -0.9988911524       -1.7245089748
 H         -0.3838809641        0.5536078595       -0.8527170598
 H         -0.3856658274       -1.0157091416       -0.0240177813
 H         -0.3638446233        0.4771679589        0.9025637724
 H          3.0958157612        0.9690545272        5.1649607556
 H          2.8443033819        2.7251432730        4.9268529553
 H          4.4802304716        2.0862544746        5.2396674316
  42
   -12.274473 !GC
 C          0.0000000000        0.0000000000        0.0000000000
 C          1.5298150139        0.0000000000        0.0000000000
 C          2.0552420791        1.4461507638        0.0000000000
 C          1.8058500896        2.1479437960        1.3381968090
 N          2.2554850791        1.3747432121        2.4775973043
 C          1.7692817621        0.0131632011        2.5273104290
 C          2.0551237386       -0.7535609292        1.2351613280
 S          3.7826138418        1.6953404194        3.0355353343
 O          4.2106455882        0.5762134255        3.8492514472
 O          4.6849413769        2.0743041896        1.9600355452
 C          3.5225897265        3.1141493097        4.0970948472
 N          2.0226789626       -0.6745755250       -1.2038372610
 C          1.2504723187       -1.2307172397       -2.1835545688
 N          1.9131529651       -1.7754069216       -3.1551543435
 C          3.2325188678       -1.5876135896       -2.8303962571
 C          3.3246776087       -0.8921913535       -1.5966279400
 C          4.6129960665       -0.6152901965       -1.1107232230
 C          5.2469606773        0.0098241093       -0.0008478299
 C          6.5933554542       -0.0964028446       -0.1954671500
 N          6.8496293884       -0.7510368609       -1.3608796365
 C          5.6697331993       -1.0825725724       -1.9463994336
 N          5.5814281944       -1.7348643465       -3.1084915074
 C          4.3664190874       -1.9839400891       -3.5440139850
 H          3.1263673076        1.4433543184       -0.1962670439
 H          1.5681691152        2.0108871644       -0.7963843392
 H          2.3549853533        3.0886973382        1.3519146158
 H          0.7420717659        2.3561769170        1.4755349046
 H          2.2806887994       -0.4675260602        3.3609596777
 H          0.6977145856        0.0450403958        2.7365860176
 H          1.5913266837       -1.7395940094        1.2877638179
 H          3.1329336956       -0.8935619231        1.1442693275
 H          0.1815345953       -1.2244269866       -2.1653991782
 H          4.8014560966        0.4882205585        0.8486248402
 H          7.3858186792        0.2583208690        0.4326592158
 H          4.2789547391       -2.5088523411       -4.4829874201
 H          7.7556334776       -0.9636952095       -1.7437443871
 H         -0.3867173353        0.5109651654       -0.8776532605
 H         -0.3850144871       -1.0159143511        0.0275797107
 H         -0.3619572331        0.5206971261        0.8792799422
 H          2.8577194905        2.8231536058        4.8976224766
 H          3.0904732731        3.8927797286        3.4846828359
 H          4.4903784006        3.4086657242        4.4797891982
  42
   -12.178279 !GC
 C          0.0000000000        0.0000000000        0.0000000000
 C          1.5294592267        0.0000000000        0.0000000000
 C          2.0553726721        1.4459677801        0.0000000000
 C          1.8007446519        2.1495253073        1.3363185826
 N          2.2435710089        1.3787463371        2.4797443190
 C          1.7655170624        0.0143571847        2.5291930079
 C          2.0575102949       -0.7524337793        1.2384909749
 S          3.7538912714        1.7179465676        3.0677140756
 O          4.1667926423        0.6161238164        3.9117376670
 O          4.6807094983        2.0842765360        2.0088361261
 C          3.4588298204        3.1525874321        4.0987542554
 N          2.0189086556       -0.6757098615       -1.2044941973
 C          1.2439935466       -1.2313289692       -2.1825448446
 N          1.9043833209       -1.7822717650       -3.1522514372
 C          3.2245786211       -1.5986998544       -2.8284116357
 C          3.3198132119       -0.8988524484       -1.5975829666
 C          4.6098056364       -0.6235386621       -1.1147446432
 C          5.2472910725        0.0071266982       -0.0097779022
 C          6.5931050959       -0.1041635099       -0.2055844959
 N          6.8458300523       -0.7671595219       -1.3669970842
 C          5.6641144620       -1.0988575427       -1.9488594063
 N          5.5723531903       -1.7580022782       -3.1068508216
 C          4.3560171754       -2.0039698694       -3.5403712014
 H          3.1270650361        1.4421006091       -0.1925692926
 H          1.5716164675        2.0101537179       -0.7987051244
 H          2.3505634039        3.0898083477        1.3514753387
 H          0.7364555328        2.3594244491        1.4676238597
 H          2.2783377314       -0.4618440996        3.3646852646
 H          0.6932718427        0.0394549967        2.7365298695
 H          1.5999509267       -1.7413637166        1.2915759947
 H          3.1360910001       -0.8860573555        1.1485477339
 H          0.1752586410       -1.2191595026       -2.1639714096
 H          4.8047446901        0.4925290877        0.8375136289
 H          7.3870455984        0.2530937475        0.4191434576
 H          4.2661868653       -2.5351893153       -4.4755023763
 H          7.7504091558       -0.9845836017       -1.7501612947
 H         -0.3866462684        0.5061993868       -0.8804514684
 H         -0.3856394890       -1.0154236552        0.0339987515
 H         -0.3603997238        0.5262801728        0.8765576637
 H          2.7501335284        2.8554057620        4.8584677183
 H          3.0592637822        3.9222557994        3.4542774680
 H          4.3947407575        3.4619630529        4.5437570830
  42
   -11.881523 !GC
 C          0.0000000000        0.0000000000        0.0000000000
 C          1.5298109766        0.0000000000        0.0000000000
 C          2.0566459954        1.4462147662        0.0000000000
 C          1.7694330885        2.1480031812        1.3279706243
 N          2.2607972308        1.3962575393        2.4619585589
 C          1.8111979361        0.0207732498        2.5286503383
 C          2.0550996239       -0.7561321236        1.2314667346
 S          3.7941511820        1.7055836127        3.0095983516
 O          4.7150514882        0.6222888501        2.7032788555
 O          4.1837157049        3.0147498009        2.5293518323
 C          3.5692696870        1.7858979556        4.7844586534
 N          2.0239232072       -0.6755312469       -1.2028494268
 C          1.2526306470       -1.2203040821       -2.1896912599
 N          1.9161836347       -1.7602665131       -3.1633971624
 C          3.2353321559       -1.5786907399       -2.8338200323
 C          3.3263351936       -0.8930149874       -1.5943345679
 C          4.6140403371       -0.6226402119       -1.1032915900
 C          5.2465584208       -0.0068171953        0.0126276606
 C          6.5932092771       -0.1133057129       -0.1800451187
 N          6.8509369816       -0.7588303210       -1.3502274371
 C          5.6718027714       -1.0850575805       -1.9402289291
 N          5.5849170264       -1.7302443579       -3.1064375253
 C          4.3704270052       -1.9738710097       -3.5464464067
 H          3.1348803375        1.4411050961       -0.1650898466
 H          1.5943673640        2.0055631533       -0.8145442489
 H          2.2775535532        3.1117028538        1.3531103454
 H          0.6975610967        2.3056028619        1.4662106439
 H          2.3623408376       -0.4589991171        3.3365241933
 H          0.7483049361        0.0304038187        2.7817080291
 H          1.5638354634       -1.7279858573        1.2991071983
 H          3.1251672021       -0.9266263338        1.1249244438
 H          0.1837578751       -1.2107323283       -2.1738720153
 H          4.7996688349        0.4621798683        0.8666742404
 H          7.3849288882        0.2350864282        0.4524457377
 H          4.2841735200       -2.4947938480       -4.4876766106
 H          7.7572708290       -0.9702666320       -1.7328174929
 H         -0.3871320527        0.5601366335       -0.8467441985
 H         -0.3835283893       -1.0161515277       -0.0314300250
 H         -0.3625161820        0.4682213707        0.9080006779
 H          3.1684038957        0.8303411327        5.0903274501
 H          2.8780360570        2.5936780372        4.9789124763
 H          4.5266246352        1.9765248183        5.2505003818
  42
   -10.817188 !GC
 C          0.0000000000        0.0000000000        0.0000000000
 C          1.5296489799        0.0000000000        0.0000000000
 C          2.0579033210        1.4459868072        0.0000000000
 C          1.7775160778        2.1486019388        1.3295577948
 N          2.2658642105        1.3952958917        2.4648707848
 C          1.8108685319        0.0209376256        2.5273951972
 C          2.0570868255       -0.7562284888        1.2311911265
 S          3.8107376024        1.7043008413        2.9803206885
 O          4.7532879142        0.6826250716        2.5513769221
 O          4.1391022269        3.0569105899        2.5808520575
 C          3.6644081045        1.6430079995        4.7669078587
 N          2.0231300581       -0.6757935658       -1.2030632219
 C          1.2514873215       -1.2243556663       -2.1874180259
 N          1.9145815044       -1.7602687874       -3.1636836531
 C          3.2338418337       -1.5718406460       -2.8383910738
 C          3.3253743776       -0.8864771991       -1.5985991982
 C          4.6133912502       -0.6103673136       -1.1112531739
 C          5.2465385496        0.0057528581        0.0042485908
 C          6.5930862159       -0.0925474606       -0.1936190184
 N          6.8501725175       -0.7335267325       -1.3664011420
 C          5.6707960567       -1.0650723190       -1.9529273273
 N          5.5834080451       -1.7084586540       -3.1201429215
 C          4.3687502931       -1.9594707307       -3.5554293605
 H          3.1349363866        1.4377390045       -0.1706421680
 H          1.5925741008        2.0068750869       -0.8118094730
 H          2.2894826428        3.1107213539        1.3559522773
 H          0.7065097598        2.3121167523        1.4690579931
 H          2.3489753163       -0.4593552110        3.3431018508
 H          0.7457918666        0.0376713975        2.7713253793
 H          1.5673469806       -1.7287796141        1.2982268852
 H          3.1271945092       -0.9232644114        1.1200753654
 H          0.1825982659       -1.2201690682       -2.1682269546
 H          4.8001483751        0.4692541172        0.8615578792
 H          7.3849855202        0.2589171844        0.4369421378
 H          4.2819507650       -2.4785874806       -4.4976612178
 H          7.7561187341       -0.9396045824       -1.7525714485
 H         -0.3835480642        0.5510803335       -0.8546692134
 H         -0.3854467355       -1.0159966227       -0.0204615668
 H         -0.3641591929        0.4800922768        0.9010858401
 H          3.7226363194        0.5983026748        5.0388734817
 H          2.7139659303        2.0711818094        5.0531236916
 H          4.4942895214        2.1988891361        5.1824048798
  42
   -10.232115 !GC
 C          0.0000000000        0.0000000000        0.0000000000
 C          1.5295889250        0.0000000000        0.0000000000
 C          2.0548182223        1.4464579032        0.0000000000
 C          1.7816581994        2.1503236578        1.3311977545
 N          2.2447015170        1.3774391312        2.4613482496
 C          1.7914340281        0.0048474713        2.5047741049
 C          2.0576590602       -0.7418823415        1.1958036329
 S          3.7105580745        1.7223800430        3.1478270770
 O          4.3053836398        0.5161226057        3.6910269584
 O          4.5368678675        2.4869053054        2.2317363977
 C          3.2352104732        2.7776771686        4.5100115618
 N          2.0215426918       -0.6746042096       -1.2044062087
 C          1.2480620062       -1.2209042183       -2.1888177709
 N          1.9095527806       -1.7712217103       -3.1580659936
 C          3.2293614682       -1.5958441153       -2.8277839891
 C          3.3229149411       -0.9017222269       -1.5937017302
 C          4.6120992106       -0.6341790016       -1.1047091830
 C          5.2477885600       -0.0111520678        0.0055115375
 C          6.5938698099       -0.1262922652       -0.1861243968
 N          6.8482677554       -0.7858534902       -1.3490954699
 C          5.6675427147       -1.1103679910       -1.9368417904
 N          5.5774249108       -1.7656957922       -3.0970236831
 C          4.3616868958       -2.0044983536       -3.5363402481
 H          3.1300615923        1.4456317854       -0.1774228787
 H          1.5814266516        2.0066105963       -0.8076637157
 H          2.3111148932        3.1015811646        1.3521052669
 H          0.7132511237        2.3345468946        1.4632311367
 H          2.3400435386       -0.4823206493        3.3113611987
 H          0.7252051931        0.0069231980        2.7433336270
 H          1.5865838269       -1.7248903188        1.2413883995
 H          3.1323003655       -0.8908770774        1.0929552078
 H          0.1792099004       -1.2023234149       -2.1753313700
 H          4.8036858815        0.4707396989        0.8539478595
 H          7.3872973712        0.2250386760        0.4425478552
 H          4.2732902134       -2.5346133251       -4.4722099079
 H          7.7533496806       -1.0052838410       -1.7297679229
 H         -0.3852177103        0.5310767485       -0.8663255128
 H         -0.3846675476       -1.0163408482        0.0034274633
 H         -0.3631626175        0.5004786451        0.8903556517
 H          4.0211768132        2.7789897876        5.2512250239
 H          2.3014711294        2.3992905727        4.8962673863
 H          3.1213684176        3.7693907138        4.0901809440
  42
   -10.001740 !GC
 C          0.0000000000        0.0000000000        0.0000000000
 C          1.5296011631        0.0000000000        0.0000000000
 C          2.0551565705        1.4459153851        0.0000000000
 C          1.7957137822        2.1503386683        1.3334884629
 N          2.2738547603        1.3914508253        2.4711777204
 C          1.7834710570        0.0304123027        2.5499280927
 C          2.0362702266       -0.7683306373        1.2703025210
 S          3.8466215330        1.6497838853        2.9394103003
 O          4.4208229390        0.4091535597        3.4239911889
 O          4.5769703200        2.3074102289        1.8713556867
 C          3.6814402072        2.7869053987        4.3155782057
 N          2.0213955304       -0.6766319928       -1.2031627737
 C          1.2481188725       -1.2261488435       -2.1858875910
 N          1.9099642423       -1.7718110625       -3.1575345673
 C          3.2296436096       -1.5900622249       -2.8304960130
 C          3.3230847995       -0.8978088560       -1.5952014180
 C          4.6120242293       -0.6251914387       -1.1084243008
 C          5.2471869582       -0.0019720327        0.0019637526
 C          6.5933381113       -0.1100297423       -0.1930256583
 N          6.8484008370       -0.7642711239       -1.3588567869
 C          5.6679169441       -1.0935556208       -1.9445559873
 N          5.5782593718       -1.7457560310       -3.1066856766
 C          4.3626758715       -1.9902322095       -3.5432039434
 H          3.1291746114        1.4449934654       -0.1850401581
 H          1.5770153572        2.0079227803       -0.8036610601
 H          2.3248138599        3.1025069042        1.3474910106
 H          0.7268884319        2.3255685119        1.4741919553
 H          2.3077801978       -0.4415856575        3.3804735468
 H          0.7159196328        0.0735869872        2.7791623369
 H          1.5462652435       -1.7400040861        1.3484179633
 H          3.1085233114       -0.9401915827        1.1781009764
 H          0.1791869779       -1.2152617063       -2.1684253001
 H          4.8027263045        0.4751765805        0.8527835278
 H          7.3863348640        0.2433640622        0.4350594801
 H          4.2739637663       -2.5158442456       -4.4816160542
 H          7.7538925017       -0.9792741098       -1.7414388353
 H         -0.3849735776        0.5302336325       -0.8668498208
 H         -0.3853357472       -1.0160460892        0.0046004034
 H         -0.3628117199        0.5013617382        0.8899208188
 H          4.5979840318        2.7368630144        4.8887283466
 H          2.8484901545        2.4170080498        4.8969025383
 H          3.5194087084        3.7863512285        3.9389713162
  42
    -9.739786 !GC
 C          0.0000000000        0.0000000000        0.0000000000
 C          1.5296851894        0.0000000000        0.0000000000
 C          2.0548506404        1.4465932956        0.0000000000
 C          1.7875316496        2.1478131595        1.3335920854
 N          2.2607446351        1.3824632496        2.4665446875
 C          1.7867478309        0.0168210091        2.5288412038
 C          2.0535536223       -0.7551733327        1.2345682417
 S          3.7887157462        1.6834730289        3.0329283386
 O          4.4432407772        0.4387421161        3.3890464910
 O          4.5073154630        2.5376110607        2.1056780908
 C          3.4685344215        2.6100195707        4.5306106685
 N          2.0211286603       -0.6749917843       -1.2043390515
 C          1.2469057849       -1.2237345447       -2.1868101247
 N          1.9077120770       -1.7698122792       -3.1589585253
 C          3.2277657266       -1.5900347744       -2.8321441150
 C          3.3223764385       -0.8976848649       -1.5968335848
 C          4.6120172918       -0.6278463054       -1.1101100033
 C          5.2485725489       -0.0060061124        0.0001683367
 C          6.5945311403       -0.1183197275       -0.1938649134
 N          6.8481445347       -0.7741259637       -1.3591907871
 C          5.6669346874       -1.0998765195       -1.9453312486
 N          5.5760744889       -1.7515214553       -3.1075761850
 C          4.3601081631       -1.9927774360       -3.5445449309
 H          3.1294920619        1.4462054246       -0.1810908028
 H          1.5791864804        2.0083632466       -0.8052030198
 H          2.3157652265        3.1003514106        1.3527225282
 H          0.7195036117        2.3300493912        1.4727082711
 H          2.3156749174       -0.4644437073        3.3505086025
 H          0.7187294155        0.0409119680        2.7566796857
 H          1.5771178223       -1.7348791433        1.2936249218
 H          3.1280464243       -0.9103403731        1.1397098000
 H          0.1780745361       -1.2115509538       -2.1693888304
 H          4.8045719802        0.4742205066        0.8494237776
 H          7.3887111047        0.2326444514        0.4342111234
 H          4.2709737019       -2.5173769974       -4.4834729796
 H          7.7530983081       -0.9913988182       -1.7413644653
 H         -0.3850470471        0.5338449197       -0.8646341056
 H         -0.3854477230       -1.0159772327        0.0004371325
 H         -0.3626079832        0.4978621285        0.8919413898
 H          4.4038664615        2.8010779211        5.0355567899
 H          2.7740555121        2.0390674258        5.1283237935
 H          3.0313383060        3.5464315747        4.2065888982
  42
    -9.666308 !GC
 C          0.0000000000        0.0000000000        0.0000000000
 C          1.5295768131        0.0000000000        0.0000000000
 C          2.0549373572        1.4462835249        0.0000000000
 C          1.7955091350        2.1453489896        1.3361808549
 N          2.2713946251        1.3769578563        2.4670861822
 C          1.7887300852        0.0133180742        2.5292829930
 C          2.0470545440       -0.7633265332        1.2366159554
 S          3.8135559431        1.6728234966        3.0027263002
 O          4.4623098473        0.4240577121        3.3555187656
 O          4.5207178818        2.5067435653        2.0485301050
 C          3.5375403787        2.6167194743        4.4996690852
 N          2.0221486812       -0.6746193551       -1.2040070239
 C          1.2491609219       -1.2241730129       -2.1869630650
 N          1.9112971500       -1.7747900842       -3.1556566157
 C          3.2308549678       -1.5978641485       -2.8255722048
 C          3.3239303632       -0.9015748360       -1.5923437138
 C          4.6127849435       -0.6318755443       -1.1035135858
 C          5.2479754340       -0.0058319496        0.0052960860
 C          6.5940995069       -0.1219447136       -0.1850390809
 N          6.8491974856       -0.7827645283       -1.3471932884
 C          5.6687408809       -1.1092013742       -1.9344061598
 N          5.5793619300       -1.7651780402       -3.0943229274
 C          4.3640279587       -2.0053870311       -3.5337928350
 H          3.1286078902        1.4465959050       -0.1870274075
 H          1.5747516165        2.0099170990       -0.8012263911
 H          2.3271153299        3.0960496698        1.3547980965
 H          0.7282185153        2.3283279603        1.4789334382
 H          2.3161845050       -0.4697452666        3.3510542010
 H          0.7212475875        0.0456247504        2.7593906723
 H          1.5638001120       -1.7394485612        1.2987326095
 H          3.1203673693       -0.9263008670        1.1407485580
 H          0.1802763537       -1.2080163796       -2.1728137306
 H          4.8034727385        0.4784699268        0.8520779099
 H          7.3870223422        0.2307623267        0.4435116795
 H          4.2759878961       -2.5338218592       -4.4707053759
 H          7.7545856625       -1.0036371207       -1.7265938909
 H         -0.3845760389        0.5304868189       -0.8669423818
 H         -0.3854190476       -1.0160374545        0.0042549204
 H         -0.3629053189        0.5014206719        0.8899405822
 H          4.5193927701        2.7837165374        4.9195199419
 H          2.8894152657        2.0518465585        5.1513859920
 H          3.0793043739        3.5594054161        4.2264088185
  42
    -9.643397 !GC
 C          0.0000000000        0.0000000000        0.0000000000
 C          1.5297557161        0.0000000000        0.0000000000
 C          2.0521528043        1.4476910831        0.0000000000
 C          1.7873017937        2.1483699230        1.3345380750
 N          2.2600626549        1.3822193504        2.4676468171
 C          1.7862413408        0.0161046151        2.5276308696
 C          2.0564701219       -0.7541953736        1.2333659922
 S          3.7820047454        1.7024823541        3.0422519786
 O          4.4705557516        0.4623297112        3.3486091363
 O          4.4737909353        2.6069207995        2.1427381522
 C          3.4454668355        2.5661893916        4.5743819721
 N          2.0214173934       -0.6751201712       -1.2041009379
 C          1.2483179752       -1.2384348153       -2.1790771455
 N          1.9102057647       -1.7827071913       -3.1515723276
 C          3.2297645037       -1.5836361917       -2.8342132209
 C          3.3229876034       -0.8813120152       -1.6044674380
 C          4.6116302205       -0.5853456575       -1.1308053405
 C          5.2462571390        0.0588872962       -0.0321684856
 C          6.5921887902       -0.0290196907       -0.2381910042
 N          6.8479091544       -0.6906268723       -1.3998136709
 C          5.6676961262       -1.0443535925       -1.9718176009
 N          5.5781864659       -1.7076929285       -3.1274942946
 C          4.3628980320       -1.9731578983       -3.5524628120
 H          3.1262031777        1.4503054633       -0.1835650881
 H          1.5732529185        2.0088909025       -0.8036792943
 H          2.3182712665        3.0993716359        1.3527423029
 H          0.7198231372        2.3325830157        1.4753950621
 H          2.3137012910       -0.4654669735        3.3501651717
 H          0.7176580611        0.0399726435        2.7530063521
 H          1.5840811558       -1.7358535337        1.2916201725
 H          3.1317418546       -0.9047151665        1.1379126455
 H          0.1794846247       -1.2367566140       -2.1569849943
 H          4.8016468768        0.5365840302        0.8182309564
 H          7.3840966195        0.3435812464        0.3801075102
 H          4.2750790112       -2.5077230314       -4.4858980395
 H          7.7534314036       -0.8919284628       -1.7895958150
 H         -0.3867753577        0.5158860706        0.8736290364
 H         -0.3815313887        0.5100673784       -0.8806220595
 H         -0.3649396473       -1.0211907330        0.0226181541
 H          2.8795620602        1.8965146549        5.2056203637
 H          2.8833556917        3.4546502540        4.3255909309
 H          4.3951752493        2.8188851606        5.0256942147
  42
    -9.631997 !GC
 C          0.0000000000        0.0000000000        0.0000000000
 C          1.5296670216        0.0000000000        0.0000000000
 C          2.0542674142        1.4467915970        0.0000000000
 C          1.7897971855        2.1478682513        1.3342563429
 N          2.2650778305        1.3819737052        2.4663345340
 C          1.7902444027        0.0164236603        2.5281117415
 C          2.0547140250       -0.7555277332        1.2335834358
 S          3.7890241429        1.6961912154        3.0380411243
 O          4.4838249469        0.4533151126        3.3169433296
 O          4.4721411206        2.6217131602        2.1538789925
 C          3.4570654128        2.5253718276        4.5895366378
 N          2.0214799985       -0.6740028721       -1.2046842880
 C          1.2479854610       -1.2229337980       -2.1875505341
 N          1.9095609342       -1.7630014948       -3.1625683124
 C          3.2293587262       -1.5780612350       -2.8376560991
 C          3.3230099711       -0.8900477858       -1.5998985427
 C          4.6121641003       -0.6165396721       -1.1140317538
 C          5.2477984289        0.0024751973       -0.0015702401
 C          6.5938616009       -0.1016546189       -0.1991074449
 N          6.8484700297       -0.7489089324       -1.3689198054
 C          5.6677518136       -1.0782792230       -1.9541037702
 N          5.5778620606       -1.7247658563       -3.1193536101
 C          4.3621994579       -1.9710969190       -3.5545982082
 H          3.1286068352        1.4467201129       -0.1829299508
 H          1.5771832644        2.0088193473       -0.8041808368
 H          2.3195292086        3.0995977607        1.3517066217
 H          0.7221683345        2.3303762395        1.4756691019
 H          2.3196977932       -0.4654659792        3.3491665132
 H          0.7225614903        0.0416306789        2.7577625085
 H          1.5775179849       -1.7348166080        1.2932578232
 H          3.1290502224       -0.9115636919        1.1378314022
 H          0.1791202799       -1.2157669890       -2.1679576553
 H          4.8033476320        0.4731425210        0.8528355971
 H          7.3872667017        0.2497175520        0.4296270949
 H          4.2737211942       -2.4939189890       -4.4945584577
 H          7.7537570072       -0.9589205467       -1.7545198693
 H         -0.3850302136        0.5322272796       -0.8656073893
 H         -0.3853137249       -1.0160429370        0.0023087381
 H         -0.3626387198        0.4996384632        0.8910091837
 H          2.8353573292        3.3719319216        4.3304155485
 H          4.4033116886        2.8329503346        5.0077677727
 H          2.9121718670        1.8604905839        5.2449031821
  42
    -9.629184 !GC
 C          0.0000000000        0.0000000000        0.0000000000
 C          1.5296381296        0.0000000000        0.0000000000
 C          2.0544867406        1.4467059991        0.0000000000
 C          1.7918509473        2.1474987057        1.3346941413
 N          2.2664969922        1.3811769898        2.4669546377
 C          1.7894754854        0.0161218825        2.5282109377
 C          2.0540680604       -0.7557344450        1.2336686691
 S          3.7910207939        1.6976738990        3.0358992766
 O          4.4663071568        0.4557702186        3.3626230679
 O          4.4931752689        2.5800290730        2.1227451297
 C          3.4627740601        2.5874124284        4.5552240245
 N          2.0219638049       -0.6742872819       -1.2042464192
 C          1.2488788908       -1.2234205514       -2.1872743872
 N          1.9108607019       -1.7688215087       -3.1590656359
 C          3.2304693221       -1.5881758525       -2.8312371721
 C          3.3237329224       -0.8958589054       -1.5957567745
 C          4.6126263600       -0.6252739056       -1.1075646617
 C          5.2479298678       -0.0019381199        0.0027161657
 C          6.5940901017       -0.1134924315       -0.1903556578
 N          6.8490650489       -0.7691990206       -1.3554015566
 C          5.6684946248       -1.0961720220       -1.9421440294
 N          5.5791085234       -1.7477795973       -3.1045260938
 C          4.3637201384       -1.9898403339       -3.5428154373
 H          3.1285253877        1.4458978129       -0.1845019586
 H          1.5764767397        2.0092595177       -0.8032904800
 H          2.3220737018        3.0988862555        1.3521779400
 H          0.7244524555        2.3308481726        1.4772942180
 H          2.3180508249       -0.4664026830        3.3495611153
 H          0.7217085923        0.0429509690        2.7569586380
 H          1.5774136370       -1.7352967039        1.2928272700
 H          3.1284768207       -0.9110654462        1.1378086965
 H          0.1799920881       -1.2121417212       -2.1705285173
 H          4.8033417791        0.4771558188        0.8523694965
 H          7.3870544422        0.2385938182        0.4385061973
 H          4.2757752048       -2.5149948316       -4.4815254002
 H          7.7543657703       -0.9854725778       -1.7374889020
 H         -0.3854130818        0.5276607591       -0.8682197565
 H         -0.3852888583       -1.0160366739        0.0076016076
 H         -0.3625196874        0.5040285409        0.8885531112
 H          4.4292488641        2.7872922428        4.9950775602
 H          2.8424195735        1.9644697787        5.1807837945
 H          2.9556000636        3.5122009330        4.3088592066
  42
    -9.611650 !GC
 C          0.0000000000        0.0000000000        0.0000000000
 C          1.5296821615        0.0000000000        0.0000000000
 C          2.0547093752        1.4465958258        0.0000000000
 C          1.7903330147        2.1478739115        1.3341928190
 N          2.2647002337        1.3818553794        2.4666069582
 C          1.7894113661        0.0163479064        2.5281957936
 C          2.0542352170       -0.7556055432        1.2337409836
 S          3.7871866425        1.7019937880        3.0394243369
 O          4.4761777226        0.4617773668        3.3434301048
 O          4.4774908509        2.6080467100        2.1406300727
 C          3.4509715988        2.5617268865        4.5739302604
 N          2.0212865896       -0.6749224696       -1.2042375935
 C          1.2474555763       -1.2243742466       -2.1865428800
 N          1.9086956109       -1.7697683726       -3.1587849842
 C          3.2285853969       -1.5883904653       -2.8323552976
 C          3.3227281516       -0.8962951353       -1.5968662159
 C          4.6120652279       -0.6248561354       -1.1103490266
 C          5.2482406481       -0.0021180640       -0.0002943178
 C          6.5942496412       -0.1125188321       -0.1950141885
 N          6.8483233687       -0.7668910220       -1.3610286421
 C          5.6673078939       -1.0945038979       -1.9465218829
 N          5.5769860383       -1.7459532313       -3.1089421973
 C          4.3611475024       -1.9890463402       -3.5455233510
 H          3.1290492225        1.4460806101       -0.1831641046
 H          1.5776668062        2.0089188614       -0.8040185757
 H          2.3208176778        3.0991971779        1.3518121046
 H          0.7227658063        2.3310832522        1.4757029432
 H          2.3188316359       -0.4659022655        3.3491144659
 H          0.7216932155        0.0420391834        2.7575412435
 H          1.5773962834       -1.7350709520        1.2930254175
 H          3.1286111053       -0.9112478492        1.1381455472
 H          0.1785948241       -1.2131457472       -2.1687910987
 H          4.8045753573        0.4759343315        0.8504475483
 H          7.3877472277        0.2391380058        0.4333867688
 H          4.2722479620       -2.5143100704       -4.4841069288
 H          7.7533114178       -0.9818474783       -1.7445854881
 H         -0.4074915441       -1.0091678987       -0.0439043063
 H         -0.3855266310        0.5349620796        0.8635956312
 H         -0.3405582596        0.5381496479       -0.8736909290
 H          2.8812065245        1.8910617613        5.2008185830
 H          2.8924881769        3.4535072779        4.3284087444
 H          4.4009353147        2.8085315221        5.0282599324
  42
    -9.599988 !GC
 C          0.0000000000        0.0000000000        0.0000000000
 C          1.5296704281        0.0000000000        0.0000000000
 C          2.0551536093        1.4464357593        0.0000000000
 C          1.7895663735        2.1479640137        1.3337273965
 N          2.2651681869        1.3825301201        2.4659936961
 C          1.7907149459        0.0168151941        2.5284208913
 C          2.0536317729       -0.7558243554        1.2339018158
 S          3.7868977626        1.7066056241        3.0382015197
 O          4.4736763938        0.4681867441        3.3536121203
 O          4.4799473343        2.6044408654        2.1330489206
 C          3.4492107497        2.5801846620        4.5645212969
 N          2.0214405642       -0.6743874285       -1.2044636748
 C          1.2479496080       -1.2189712580       -2.1897222946
 N          1.9095676088       -1.7633440634       -3.1623017957
 C          3.2293007233       -1.5867220190       -2.8327737516
 C          3.3229890492       -0.8977309606       -1.5955078635
 C          4.6120924618       -0.6304567714       -1.1061055520
 C          5.2477699452       -0.0113602426        0.0062960273
 C          6.5938300846       -0.1247929121       -0.1861633767
 N          6.8484448325       -0.7783223855       -1.3525549189
 C          5.6676720197       -1.1015754159       -1.9409965123
 N          5.5777939101       -1.7503286573       -3.1049648347
 C          4.3621855072       -1.9889637569       -3.5445535422
 H          3.1298099565        1.4455178487       -0.1817114764
 H          1.5792722062        2.0085410645       -0.8048653344
 H          2.3188135537        3.0999476530        1.3509546067
 H          0.7217552520        2.3297588823        1.4750372022
 H          2.3215297603       -0.4647322111        3.3488497409
 H          0.7233174600        0.0421763987        2.7593849450
 H          1.5750702917       -1.7344057899        1.2939229581
 H          3.1275821651       -0.9135734112        1.1377110444
 H          0.1790950767       -1.2049000694       -2.1738758444
 H          4.8037863024        0.4672750550        0.8565555340
 H          7.3869957229        0.2239792588        0.4443125151
 H          4.2738009253       -2.5106712263       -4.4851819377
 H          7.7536034789       -0.9948444733       -1.7348184646
 H         -0.3848233937        0.4528271934        0.9097960483
 H         -0.4075429198        0.4940948630       -0.8812016713
 H         -0.3406412241       -1.0262170056       -0.0020502409
 H          2.8779938342        1.9153999793        5.1964177867
 H          2.8917360820        3.4702320168        4.3104192375
 H          4.3988290372        2.8303257318        5.0179192494
  42
    -9.584343 !GC
 C          0.0000000000        0.0000000000        0.0000000000
 C          1.5296898576        0.0000000000        0.0000000000
 C          2.0550406739        1.4464136379        0.0000000000
 C          1.7923186965        2.1468243948        1.3348859019
 N          2.2673013494        1.3802250471        2.4666854615
 C          1.7899070871        0.0155139236        2.5296703536
 C          2.0537252256       -0.7587689249        1.2362968736
 S          3.7900312357        1.7002647698        3.0383165916
 O          4.4872770047        0.4598297678        3.3230071713
 O          4.4714054328        2.6214422323        2.1481991185
 C          3.4577487675        2.5382863071        4.5857666819
 N          2.0211844438       -0.6746993533       -1.2044083644
 C          1.2471514257       -1.2252373152       -2.1859509554
 N          1.9081965810       -1.7705299036       -3.1583781441
 C          3.2280767829       -1.5884462467       -2.8326113026
 C          3.3225434141       -0.8954692521       -1.5976191655
 C          4.6120005324       -0.6241975637       -1.1112929642
 C          5.2484530321       -0.0025972268       -0.0007698510
 C          6.5944253428       -0.1134994063       -0.1956651585
 N          6.8481693950       -0.7678745633       -1.3617843391
 C          5.6669909036       -1.0947776502       -1.9472535597
 N          5.5763659576       -1.7464247857       -3.1094632930
 C          4.3604815347       -1.9891137792       -3.5460769023
 H          3.1291576968        1.4458059067       -0.1843318049
 H          1.5770549257        2.0090321737       -0.8032442966
 H          2.3235080352        3.0977102807        1.3525212230
 H          0.7250923139        2.3310365393        1.4773104506
 H          2.3182153308       -0.4664263047        3.3514765898
 H          0.7221011168        0.0433930743        2.7585841797
 H          1.5757276795       -1.7376205563        1.2972381594
 H          3.1279711313       -0.9157960260        1.1411005721
 H          0.1782857619       -1.2152131509       -2.1674479640
 H          4.8049978489        0.4752482859        0.8501850438
 H          7.3881386282        0.2377736970        0.4327042623
 H          4.2713185095       -2.5155497028       -4.4840236571
 H          7.7531308621       -0.9837987712       -1.7449513084
 H         -0.3847834208        0.5326847071       -0.8654807272
 H         -0.3852871760       -1.0161389226        0.0014518147
 H         -0.3630602763        0.4990460975        0.8911915713
 H          2.8766952576        3.4118118901        4.3275059091
 H          4.4054903675        2.8133924218        5.0297818500
 H          2.9123736328        1.8662310839        5.2313963871
  42
    -9.571030 !GC
 C          0.0000000000        0.0000000000        0.0000000000
 C          1.5297123151        0.0000000000        0.0000000000
 C          2.0547459513        1.4465957765        0.0000000000
 C          1.7896943326        2.1483071378        1.3337554263
 N          2.2621583777        1.3812515334        2.4662830299
 C          1.7864965345        0.0158690805        2.5255134630
 C          2.0532625188       -0.7548523736        1.2307024870
 S          3.7836839874        1.7018024423        3.0407531358
 O          4.4675647500        0.4625005337        3.3593087985
 O          4.4798150465        2.5967095341        2.1352794908
 C          3.4456575457        2.5795832624        4.5645879230
 N          2.0211409924       -0.6744768971       -1.2045655256
 C          1.2471283042       -1.2237555742       -2.1868460631
 N          1.9081248556       -1.7710845172       -3.1581474873
 C          3.2280743538       -1.5915775105       -2.8309556375
 C          3.3225367464       -0.8979439357       -1.5963107987
 C          4.6120264201       -0.6279997773       -1.1093152056
 C          5.2485396702       -0.0053091306        0.0006117372
 C          6.5945055013       -0.1180211758       -0.1932395434
 N          6.8482474892       -0.7748937028       -1.3579265208
 C          5.6670454153       -1.1013791469       -1.9436821213
 N          5.5764193143       -1.7540618551       -3.1053669401
 C          4.3604997347       -1.9950224079       -3.5428254732
 H          3.1291743343        1.4457328505       -0.1825327850
 H          1.5780133905        2.0084387088       -0.8044960035
 H          2.3214266017        3.0989189432        1.3517191488
 H          0.7222614099        2.3330405618        1.4743595085
 H          2.3145587897       -0.4672294218        3.3468245017
 H          0.7183244592        0.0414373752        2.7527929216
 H          1.5778701727       -1.7350509680        1.2894048946
 H          3.1279211929       -0.9089011104        1.1362811330
 H          0.1782681305       -1.2109239274       -2.1698583952
 H          4.8051661185        0.4743976292        0.8505094996
 H          7.3882462989        0.2337910534        0.4347940658
 H          4.2713590503       -2.5212610969       -4.4808404608
 H          7.7531902771       -0.9920529647       -1.7403793320
 H         -0.3850452643        0.5311248937       -0.8663539842
 H         -0.3851580437       -1.0161517302        0.0034171347
 H         -0.3630912307        0.5006367759        0.8902851100
 H          4.3988811035        2.8584014839        4.9903879214
 H          2.8357216409        1.9694907623        5.2130644724
 H          2.9221067873        3.4797782049        4.2672911929
  42
    -9.565966 !GC
 C          0.0000000000        0.0000000000        0.0000000000
 C          1.5295231927        0.0000000000        0.0000000000
 C          2.0519062814        1.4477047189        0.0000000000
 C          1.7893086567        2.1481140777        1.3351945578
 N          2.2932980640        1.3963282893        2.4638537131
 C          1.8286912954        0.0286533330        2.5531229879
 C          2.0577975121       -0.7544201318        1.2578376088
 S          3.8185695170        1.7465844926        3.0090896208
 O          4.5256348228        0.5213624875        3.3305939434
 O          4.4862551703        2.6416822045        2.0825985034
 C          3.4936210038        2.6368358671        4.5287155381
 N          2.0210862553       -0.6788368457       -1.2018098923
 C          1.2445671869       -1.2168274919       -2.1883487208
 N          1.9026260005       -1.7728494208       -3.1566292400
 C          3.2232251508       -1.6121883243       -2.8223873262
 C          3.3209449654       -0.9184350049       -1.5881435412
 C          4.6114236614       -0.6622200367       -1.0968885832
 C          5.2510568480       -0.0399972036        0.0114314010
 C          6.5962919777       -0.1719299083       -0.1752246566
 N          6.8465764666       -0.8389995209       -1.3348538182
 C          5.6637754042       -1.1533629046       -1.9242067804
 N          5.5699746297       -1.8093239875       -3.0839145135
 C          4.3529371553       -2.0340359965       -3.5271377964
 H          3.1253552729        1.4503402570       -0.1874224508
 H          1.5705885467        2.0087948150       -0.8023530611
 H          2.3018532954        3.1091701193        1.3435728289
 H          0.7202239558        2.3109929464        1.4897228372
 H          2.3870514464       -0.4408525912        3.3621853683
 H          0.7684751294        0.0488299584        2.8156542934
 H          1.5594502774       -1.7224181003        1.3265255568
 H          3.1268990073       -0.9348703716        1.1470916524
 H          0.1760146630       -1.1881939962       -2.1770350114
 H          4.8102205317        0.4537792846        0.8546313024
 H          7.3917454784        0.1732332351        0.4543820623
 H          4.2611650870       -2.5632236291       -4.4632518622
 H          7.7500615462       -1.0693071960       -1.7127961746
 H         -0.3773188496        0.4818677582        0.9004985048
 H         -0.3745385625        0.5240895386       -0.8756528982
 H         -0.3807591332       -1.0122650818       -0.0065420176
 H          2.9473568661        1.9714503273        5.1815835857
 H          2.9150065754        3.5124277061        4.2718533436
 H          4.4471798523        2.9111804284        4.9591092280
  42
    -9.564708 !GC
 C          0.0000000000        0.0000000000        0.0000000000
 C          1.5295373232        0.0000000000        0.0000000000
 C          2.0570479458        1.4453787528        0.0000000000
 C          1.8176148833        2.1369939568        1.3443615512
 N          2.2810858814        1.3475256429        2.4652507518
 C          1.7840748174       -0.0105392444        2.5117019695
 C          2.0488562320       -0.7768749630        1.2137669249
 S          3.8059164901        1.6373753367        3.0474021305
 O          4.4817660782        0.3835164032        3.3240089450
 O          4.5070523781        2.5567688273        2.1711210849
 C          3.4760092294        2.4637378453        4.6015355645
 N          2.0212529807       -0.6739053882       -1.2046280014
 C          1.2449824994       -1.2332425057       -2.1794341269
 N          1.9034343436       -1.7758620995       -3.1550200446
 C          3.2240460765       -1.5825927982       -2.8386750340
 C          3.3214586905       -0.8868389419       -1.6053501443
 C          4.6120703531       -0.6066224777       -1.1273403775
 C          5.2514655189        0.0180276343       -0.0202199040
 C          6.5968647898       -0.0816331726       -0.2247498973
 N          6.8475823821       -0.7316675976       -1.3939551704
 C          5.6649194222       -1.0677481272       -1.9712168506
 N          5.5713999400       -1.7198871477       -3.1329359108
 C          4.3544269562       -1.9743268977       -3.5596976366
 H          3.1278729462        1.4450443084       -0.2028761820
 H          1.5659011777        2.0128545096       -0.7918415992
 H          2.3703282493        3.0754243380        1.3707061847
 H          0.7554840388        2.3437915108        1.4943371243
 H          2.2994203726       -0.5066039121        3.3332419852
 H          0.7149350801        0.0299838835        2.7320908419
 H          1.5676170781       -1.7545888494        1.2670257309
 H          3.1225693656       -0.9370175194        1.1193854992
 H          0.1762455456       -1.2319672613       -2.1532863099
 H          4.8103493507        0.4892687237        0.8357062973
 H          7.3920943499        0.2748410378        0.3987554091
 H          4.2630331425       -2.5004356141       -4.4975702939
 H          7.7515294922       -0.9401280776       -1.7835902417
 H         -0.4030073289       -1.0060694230       -0.0303582975
 H         -0.3746437967        0.5310620907        0.8713816618
 H         -0.3549948752        0.5173286174       -0.8865793589
 H          2.8964711746        1.7849842132        5.2105635906
 H          2.9289169653        3.3679432958        4.3762756069
 H          4.4276949085        2.6880933147        5.0639893433
  42
    -9.539425 !GC
 C          0.0000000000        0.0000000000        0.0000000000
 C          1.5296426716        0.0000000000        0.0000000000
 C          2.0544948986        1.4466460364        0.0000000000
 C          1.7898987771        2.1475578290        1.3343192993
 N          2.2651071884        1.3816236557        2.4664227757
 C          1.7900876703        0.0160902078        2.5283772334
 C          2.0542980520       -0.7556895974        1.2336740066
 S          3.7865992288        1.7034113906        3.0402593884
 O          4.4761464701        0.4639738032        3.3457145970
 O          4.4770364595        2.6093896324        2.1413207347
 C          3.4484965946        2.5643821592        4.5736533014
 N          2.0214067702       -0.6746176474       -1.2043332188
 C          1.2478289220       -1.2234508392       -2.1871784830
 N          1.9093918959       -1.7684924583       -3.1594295250
 C          3.2291690686       -1.5880189575       -2.8321239423
 C          3.3229514283       -0.8960797957       -1.5964958911
 C          4.6121264779       -0.6249755524       -1.1093521592
 C          5.2479158698       -0.0028540983        0.0013155511
 C          6.5939425652       -0.1134496074       -0.1928692315
 N          6.8484486537       -0.7678021013       -1.3588114896
 C          5.6676407934       -1.0950365646       -1.9449233555
 N          5.5776771450       -1.7464318001       -3.1073903118
 C          4.3620246255       -1.9891761411       -3.5445847055
 H          3.1288628593        1.4463015752       -0.1830340917
 H          1.5774220222        2.0089096196       -0.8040497033
 H          2.3197778734        3.0991837216        1.3518836922
 H          0.7222356543        2.3300876254        1.4759731726
 H          2.3201053590       -0.4659378861        3.3490106498
 H          0.7225046184        0.0415912547        2.7583707090
 H          1.5770500677       -1.7349469899        1.2930150507
 H          3.1285740977       -0.9118034359        1.1376773348
 H          0.1789425622       -1.2116931133       -2.1700297847
 H          4.8039685796        0.4751530667        0.8519492277
 H          7.3872086692        0.2379786245        0.4359861272
 H          4.2735676793       -2.5131203892       -4.4839511906
 H          7.7536318703       -0.9830727680       -1.7416998821
 H         -0.3847880453        0.5333937932       -0.8651008002
 H         -0.3851655302       -1.0161962306        0.0008660626
 H         -0.3628161220        0.4984473512        0.8916666276
 H          4.3980864085        2.8159824424        5.0262998564
 H          2.8823513113        1.8926866367        5.2028303034
 H          2.8858416831        3.4533095947        4.3268592372
  42
    -9.530046 !GC
 C          0.0000000000        0.0000000000        0.0000000000
 C          1.5296393913        0.0000000000        0.0000000000
 C          2.0540477859        1.4468508671        0.0000000000
 C          1.7913386945        2.1478135770        1.3347975847
 N          2.2645765702        1.3810254686        2.4670987451
 C          1.7880695292        0.0159056995        2.5279029748
 C          2.0547732833       -0.7554596636        1.2335414242
 S          3.7867421103        1.6973845083        3.0427386186
 O          4.4794754174        0.4555948511        3.3319371796
 O          4.4735271808        2.6153813413        2.1535969764
 C          3.4499160058        2.5379315066        4.5876662608
 N          2.0215173801       -0.6748001358       -1.2041815461
 C          1.2479361900       -1.2289437638       -2.1840492013
 N          1.9094256630       -1.7722581170       -3.1572603696
 C          3.2292315490       -1.5843226799       -2.8342035341
 C          3.3230581766       -0.8906958736       -1.5995660655
 C          4.6122628512       -0.6138504492       -1.1157229927
 C          5.2481661446        0.0099371667       -0.0061159710
 C          6.5942140526       -0.0929049160       -0.2047104660
 N          6.8485577869       -0.7450803019       -1.3718866892
 C          5.6676964763       -1.0780785207       -1.9546966437
 N          5.5776480361       -1.7299111223       -3.1169235883
 C          4.3619290942       -1.9794992431       -3.5501804554
 H          3.1279988125        1.4469279098       -0.1850487160
 H          1.5754411928        2.0093297310       -0.8029934678
 H          2.3232291504        3.0983496523        1.3529340315
 H          0.7240919705        2.3326675256        1.4767249855
 H          2.3160183006       -0.4670712442        3.3492803105
 H          0.7200358870        0.0422051313        2.7556490412
 H          1.5795136692       -1.7357181418        1.2920768883
 H          3.1295345174       -0.9091231931        1.1384346586
 H          0.1790672393       -1.2233227929       -2.1634011175
 H          4.8043817978        0.4827663872        0.8474431540
 H          7.3875697089        0.2620882296        0.4220568840
 H          4.2732796556       -2.5044361575       -4.4889747126
 H          7.7535912328       -0.9558534463       -1.7576164904
 H         -0.3847405851        0.5294402907       -0.8674901258
 H         -0.3853028827       -1.0160683501        0.0054057614
 H         -0.3628343966        0.5026398104        0.8892538370
 H          2.8838489059        3.4249787599        4.3468206258
 H          4.4020671864        2.7671829599        5.0442903618
 H          2.8782408881        1.8678464981        5.2173753950
  42
    -9.484873 !GC
 C          0.0000000000        0.0000000000        0.0000000000
 C          1.5296769887        0.0000000000        0.0000000000
 C          2.0542637910        1.4468063216        0.0000000000
 C          1.7898586498        2.1472639913        1.3344428338
 N          2.2655196747        1.3815594570        2.4665839846
 C          1.7911294035        0.0156777823        2.5280838013
 C          2.0548919182       -0.7560946737        1.2333331902
 S          3.7881855269        1.7025358132        3.0377505780
 O          4.4711420521        0.4630033735        3.3566845797
 O          4.4844331958        2.5950678849        2.1304029822
 C          3.4539744535        2.5806339516        4.5621076282
 N          2.0211717867       -0.6739248423       -1.2047996265
 C          1.2474610516       -1.2199695970       -2.1891263309
 N          1.9089085341       -1.7658502647       -3.1609508153
 C          3.2286913838       -1.5886135650       -2.8320618333
 C          3.3226597949       -0.8977327401       -1.5958355933
 C          4.6119047658       -0.6303406198       -1.1067414219
 C          5.2480349141       -0.0099672123        0.0047282058
 C          6.5940310873       -0.1252205480       -0.1872223306
 N          6.8481307885       -0.7812964284       -1.3522878071
 C          5.6671521095       -1.1038643542       -1.9406097973
 N          5.5769996704       -1.7542722320       -3.1036032648
 C          4.3613616441       -1.9925654608       -3.5431593146
 H          3.1285438276        1.4464635632       -0.1832413014
 H          1.5770988591        2.0095168606       -0.8036379595
 H          2.3191414864        3.0991518824        1.3520088348
 H          0.7221894766        2.3294022572        1.4767694723
 H          2.3218987473       -0.4660755749        3.3484293650
 H          0.7235904141        0.0404253505        2.7584877878
 H          1.5780602847       -1.7355665152        1.2931619442
 H          3.1291463727       -0.9116496712        1.1363517487
 H          0.1786287368       -1.2062041438       -2.1729129877
 H          4.8042234675        0.4703215575        0.8541371567
 H          7.3875682213        0.2238023720        0.4426105518
 H          4.2726190718       -2.5160928248       -4.4826824293
 H          7.7530746232       -1.0002931670       -1.7336901145
 H         -0.3849701444        0.5314647102       -0.8660896808
 H         -0.3853167715       -1.0160393158        0.0029950080
 H         -0.3627941355        0.5002570826        0.8906285037
 H          2.9230199827        3.4832439275        4.2905878456
 H          4.4122949841        2.7928246419        5.0094164979
 H          2.8415145319        1.9622754692        5.2036659186
  42
    -9.482040 !GC
 C          0.0000000000        0.0000000000        0.0000000000
 C          1.5295800934        0.0000000000        0.0000000000
 C          2.0548193108        1.4465593997        0.0000000000
 C          1.7919659360        2.1473997582        1.3347343411
 N          2.2693855095        1.3824779789        2.4668103726
 C          1.7938531965        0.0172913256        2.5317673428
 C          2.0549321023       -0.7561418893        1.2374588292
 S          3.7948739875        1.7030206822        3.0313537621
 O          4.4886909916        0.4628050535        3.3242172367
 O          4.4772419241        2.6153670355        2.1328737053
 C          3.4667635436        2.5530762461        4.5730768852
 N          2.0220024264       -0.6751028163       -1.2037746099
 C          1.2489838743       -1.2247971194       -2.1865876348
 N          1.9110911106       -1.7647447678       -3.1612602289
 C          3.2306688546       -1.5796024499       -2.8359089125
 C          3.3237862515       -0.8908445951       -1.5984829370
 C          4.6126662014       -0.6166904608       -1.1122704657
 C          5.2476988806        0.0031393170        0.0001133446
 C          6.5939614271       -0.1015074151       -0.1967276646
 N          6.8491296219       -0.7498961624       -1.3659229497
 C          5.6686147858       -1.0794275536       -1.9514317201
 N          5.5792054387       -1.7271627920       -3.1159786323
 C          4.3637999295       -1.9741952401       -3.5514491539
 H          3.1290563223        1.4459551237       -0.1838946462
 H          1.5773033816        2.0090973335       -0.8035941613
 H          2.3208296038        3.0995889274        1.3511570430
 H          0.7242937858        2.3289060750        1.4781151412
 H          2.3253915336       -0.4641855708        3.3517965154
 H          0.7268848019        0.0436172273        2.7645517792
 H          1.5752359257       -1.7340987492        1.2981010085
 H          3.1286940485       -0.9147900409        1.1402255318
 H          0.1801183300       -1.2181284323       -2.1670590931
 H          4.8031116643        0.4757217018        0.8534865706
 H          7.3869560460        0.2503704931        0.4321971399
 H          4.2757092756       -2.4954779556       -4.4923826864
 H          7.7546221746       -0.9605391882       -1.7507623246
 H         -0.3851578241        0.5319152956       -0.8657799077
 H         -0.3852772383       -1.0161092870        0.0024699922
 H         -0.3627051376        0.4997498449        0.8909167633
 H          4.4350537688        2.8067643275        4.9808118754
 H          2.9593410754        1.8563836862        5.2246543548
 H          2.8815415771        3.4404257124        4.3737347110
  42
    -9.442087 !GC
 C          0.0000000000        0.0000000000        0.0000000000
 C          1.5296835493        0.0000000000        0.0000000000
 C          2.0541809023        1.4467652094        0.0000000000
 C          1.7933931400        2.1468454360        1.3354063573
 N          2.2725377737        1.3823586820        2.4674618474
 C          1.7914297078        0.0189738276        2.5353715709
 C          2.0537613897       -0.7597846906        1.2445569095
 S          3.8074895215        1.6934250662        3.0126554660
 O          4.5061548502        0.4482284427        3.2708782169
 O          4.4737655466        2.6205202852        2.1175244895
 C          3.5076791053        2.5199024855        4.5728480390
 N          2.0215200965       -0.6753698853       -1.2039137308
 C          1.2473830709       -1.2247120851       -2.1860518048
 N          1.9083170723       -1.7700986666       -3.1583837856
 C          3.2282604194       -1.5887380371       -2.8324519759
 C          3.3228610181       -0.8966301498       -1.5970248533
 C          4.6124222741       -0.6255688719       -1.1109074201
 C          5.2491560032       -0.0037937347       -0.0006500336
 C          6.5950227342       -0.1139615948       -0.1961326815
 N          6.8485744854       -0.7681751706       -1.3623146999
 C          5.6672673732       -1.0956541532       -1.9473537430
 N          5.5764377339       -1.7468370565       -3.1099442113
 C          4.3603551089       -1.9894143904       -3.5462326062
 H          3.1280147221        1.4468241836       -0.1858209166
 H          1.5750218531        2.0096113702       -0.8023520377
 H          2.3234130234        3.0985077021        1.3513661513
 H          0.7260827312        2.3293427218        1.4805044289
 H          2.3184984628       -0.4621402060        3.3583651198
 H          0.7238676491        0.0506987772        2.7645723707
 H          1.5749794727       -1.7380069026        1.3086972092
 H          3.1280284346       -0.9178668379        1.1504268494
 H          0.1784471517       -1.2140751058       -2.1677148609
 H          4.8058598396        0.4738422336        0.8505730228
 H          7.3889026735        0.2377592622        0.4317404822
 H          4.2709075201       -2.5163453815       -4.4839468334
 H          7.7534479210       -0.9836365713       -1.7460371586
 H         -0.3851922722        0.5331253568       -0.8649922326
 H         -0.3851949939       -1.0161304358        0.0011230493
 H         -0.3627797712        0.4984415865        0.8915455182
 H          4.4771860987        2.7862883108        4.9655056557
 H          2.9984590609        1.8018349641        5.2026528019
 H          2.8855716390        3.3907184844        4.4149189180
  42
    -9.396910 !GC
 C          0.0000000000        0.0000000000        0.0000000000
 C          1.5297251840        0.0000000000        0.0000000000
 C          2.0532705521        1.4471239328        0.0000000000
 C          1.7848348848        2.1498585556        1.3325239758
 N          2.2593463492        1.3886533117        2.4683457686
 C          1.7863495921        0.0222470632        2.5323861339
 C          2.0544303913       -0.7517383314        1.2397005590
 S          3.7755959851        1.7243762360        3.0502875249
 O          4.4984837709        0.4928825710        3.3088034025
 O          4.4381488217        2.6777584028        2.1802453709
 C          3.4277770044        2.5227248201        4.6153271667
 N          2.0211595661       -0.6746080469       -1.2044662687
 C          1.2475003054       -1.2211268158       -2.1884227123
 N          1.9087979473       -1.7695196301       -3.1589322608
 C          3.2285899912       -1.5937918188       -2.8292876824
 C          3.3227190771       -0.9005770270       -1.5943471919
 C          4.6118675422       -0.6338532088       -1.1047998831
 C          5.2477970375       -0.0119239914        0.0059447396
 C          6.5937755407       -0.1297546459       -0.1843062523
 N          6.8481126141       -0.7883105561       -1.3479719182
 C          5.6672633730       -1.1111480988       -1.9364530012
 N          5.5771278058       -1.7642908996       -3.0979503055
 C          4.3614012666       -2.0011882132       -3.5383556010
 H          3.1280747514        1.4473398982       -0.1804808824
 H          1.5771929989        2.0070551889       -0.8061834380
 H          2.3129710787        3.1024815880        1.3492687125
 H          0.7169131071        2.3319084895        1.4716893909
 H          2.3154996215       -0.4572428769        3.3550775839
 H          0.7182858577        0.0470588385        2.7606675402
 H          1.5780505761       -1.7314374195        1.2997341808
 H          3.1292027311       -0.9067086706        1.1466198152
 H          0.1786481477       -1.2057538846       -2.1732038766
 H          4.8034522248        0.4708415411        0.8536568182
 H          7.3874546130        0.2196358368        0.4451464521
 H          4.2732459070       -2.5281435655       -4.4760783147
 H          7.7531925718       -1.0095404853       -1.7277785488
 H         -0.3850398669        0.5326914949       -0.8653456963
 H         -0.3856338357       -1.0158610329        0.0016878055
 H         -0.3625902596        0.4992393776        0.8912765106
 H          4.3834333697        2.8355996604        5.0157056994
 H          2.9448547797        1.8161115590        5.2748262206
 H          2.7926510383        3.3698860700        4.4032654929
  42
    -9.309728 !GC
 C          0.0000000000        0.0000000000        0.0000000000
 C          1.5297757764        0.0000000000        0.0000000000
 C          2.0533826076        1.4467627753        0.0000000000
 C          1.7867215665        2.1472627602        1.3340133285
 N          2.2579650878        1.3800469279        2.4662705151
 C          1.7842867955        0.0147610687        2.5292980360
 C          2.0530252079       -0.7551279167        1.2344357706
 S          3.7642973294        1.7051228585        3.0756918846
 O          4.3308177264        0.4922160552        3.6324275647
 O          4.5796091096        2.4075210065        2.1016626812
 C          3.3903828167        2.8275502723        4.4166022851
 N          2.0213735991       -0.6750682033       -1.2040385336
 C          1.2479062681       -1.2239238333       -2.1870504617
 N          1.9096552996       -1.7727075522       -3.1570608969
 C          3.2294286805       -1.5947251658       -2.8281882700
 C          3.3229068993       -0.9007805860       -1.5939051065
 C          4.6118953404       -0.6316834046       -1.1053448619
 C          5.2472839800       -0.0081712172        0.0046985954
 C          6.5933620009       -0.1228172766       -0.1867684092
 N          6.8482276621       -0.7815368727       -1.3501590456
 C          5.6675936920       -1.1068845577       -1.9377410886
 N          5.5777722442       -1.7604354945       -3.0989874236
 C          4.3622102529       -2.0000751318       -3.5382133106
 H          3.1280161687        1.4495534305       -0.1814106775
 H          1.5765043394        2.0083489687       -0.8046171268
 H          2.3186811353        3.0973347057        1.3497231026
 H          0.7190996124        2.3312005754        1.4733165212
 H          2.3214639024       -0.4673154040        3.3458413251
 H          0.7172701659        0.0356270638        2.7616471653
 H          1.5791327768       -1.7361719518        1.2922379655
 H          3.1284084856       -0.9092596785        1.1448891810
 H          0.1790176241       -1.2098794542       -2.1710391622
 H          4.8030546280        0.4741368144        0.8526864124
 H          7.3863800204        0.2288855772        0.4422321107
 H          4.2741455094       -2.5275627144       -4.4756201258
 H          7.7535691848       -0.9999046765       -1.7309485550
 H         -0.3983798318       -1.0097535938       -0.0179012810
 H         -0.3572601831        0.5171209322        0.8909228623
 H         -0.3772234783        0.5388068145       -0.8580572171
 H          2.4664961858        2.5062980458        4.8747058804
 H          3.3081885850        3.8148275444        3.9867487939
 H          4.2134600965        2.7822300423        5.1164471428
  42
    -9.279243 !GC
 C          0.0000000000        0.0000000000        0.0000000000
 C          1.5295167582        0.0000000000        0.0000000000
 C          2.0565456889        1.4456966734        0.0000000000
 C          1.8003193353        2.1490730002        1.3356651708
 N          2.2489897055        1.3799622296        2.4775775559
 C          1.7711608870        0.0152820704        2.5290516428
 C          2.0563888368       -0.7530607107        1.2373651923
 S          3.7655409532        1.7073005539        3.0572096671
 O          4.2374214736        0.5506116315        3.7910939614
 O          4.6469136577        2.1899706044        2.0072129593
 C          3.4634460819        3.0390419233        4.2160475370
 N          2.0199707815       -0.6747473889       -1.2047804053
 C          1.2450141318       -1.2309015739       -2.1825923155
 N          1.9053679521       -1.7787907521       -3.1539731447
 C          3.2255115347       -1.5922731086       -2.8319211366
 C          3.3209251969       -0.8944264361       -1.5999127353
 C          4.6109724455       -0.6180432925       -1.1180129393
 C          5.2488693698        0.0102614830       -0.0120340692
 C          6.5946072230       -0.0974646163       -0.2102902712
 N          6.8468440498       -0.7574701901       -1.3735028470
 C          5.6649743042       -1.0897066677       -1.9546301301
 N          5.5731377351       -1.7465336957       -3.1138454467
 C          4.3567287391       -1.9932848696       -3.5467351987
 H          3.1288750573        1.4403286670       -0.1906168675
 H          1.5748111883        2.0098188988       -0.7999203023
 H          2.3459092126        3.0917566685        1.3511859285
 H          0.7353579490        2.3538507370        1.4692932103
 H          2.2872408205       -0.4622057015        3.3617573185
 H          0.6999314135        0.0406377838        2.7414695447
 H          1.5935394323       -1.7393685736        1.2923628390
 H          3.1338391199       -0.8925104193        1.1456938183
 H          0.1763363149       -1.2225223288       -2.1622769739
 H          4.8068736519        0.4910401605        0.8381813710
 H          7.3891481538        0.2595900198        0.4137696902
 H          4.2666644954       -2.5233099118       -4.4825136726
 H          7.7513804472       -0.9730339160       -1.7578707864
 H         -0.3832919588        0.5102710090       -0.8795293114
 H         -0.3863648164       -1.0152197986        0.0279309797
 H         -0.3632024834        0.5230402196        0.8771789984
 H          4.4178684501        3.2913587691        4.6551661576
 H          2.7545371788        2.6846493501        4.9486716047
 H          3.0610471617        3.8800596440        3.6648461533
  42
    -9.252930 !GC
 C          0.0000000000        0.0000000000        0.0000000000
 C          1.5296593255        0.0000000000        0.0000000000
 C          2.0549090870        1.4466024157        0.0000000000
 C          1.7708706954        2.1558785044        1.3260967669
 N          2.2263260643        1.3877540913        2.4623016578
 C          1.7850207293        0.0110894161        2.5017224883
 C          2.0589912149       -0.7313285139        1.1919290676
 S          3.6789551344        1.7464007301        3.1690484231
 O          4.2820418594        0.5440727287        3.7118190416
 O          4.5065362390        2.5269741792        2.2679263476
 C          3.1734556344        2.7869781636        4.5317724404
 N          2.0207696193       -0.6755738044       -1.2041191228
 C          1.2459933242       -1.2185460044       -2.1894348460
 N          1.9062676974       -1.7668461593       -3.1606473710
 C          3.2265067410       -1.5931103429       -2.8310821936
 C          3.3216916455       -0.9026851795       -1.5947576325
 C          4.6113276975       -0.6369135486       -1.1060353015
 C          5.2478239960       -0.0164726289        0.0051427259
 C          6.5937370839       -0.1302201347       -0.1884262189
 N          6.8471966329       -0.7862981508       -1.3535821776
 C          5.6660563091       -1.1094008144       -1.9411348510
 N          5.5748366149       -1.7613475773       -3.1030389329
 C          4.3586945410       -1.9998920861       -3.5413527888
 H          3.1315474713        1.4453483379       -0.1689928374
 H          1.5876795027        2.0041256110       -0.8130682159
 H          2.2985532923        3.1081446852        1.3471991581
 H          0.7011694113        2.3387121477        1.4493580911
 H          2.3361672125       -0.4734500401        3.3082408670
 H          0.7183326704        0.0035870993        2.7382699993
 H          1.5932711192       -1.7170021033        1.2349558311
 H          3.1346325099       -0.8740376188        1.0902202771
 H          0.1771719692       -1.1993925381       -2.1744551749
 H          4.8042115487        0.4624596753        0.8555341900
 H          7.3877754173        0.2197225032        0.4401933025
 H          4.2695660570       -2.5270158601       -4.4788080833
 H          7.7520704387       -1.0030104264       -1.7362077592
 H         -0.3749488312        0.4917219945        0.8970891771
 H         -0.3772419095        0.5205123677       -0.8760023427
 H         -0.3810124646       -1.0119096514        0.0002525087
 H          2.2615173499        2.3665224878        4.9304977569
 H          3.0270426466        3.7889022845        4.1541287776
 H          3.9648395820        2.7542767091        5.2679153405
  42
    -9.197189 !GC
 C          0.0000000000        0.0000000000        0.0000000000
 C          1.5297684588        0.0000000000        0.0000000000
 C          2.0526989436        1.4469840348        0.0000000000
 C          1.7852906746        2.1476820469        1.3337559653
 N          2.2559298378        1.3803413414        2.4661128427
 C          1.7834810211        0.0146935154        2.5293621551
 C          2.0531996346       -0.7549122351        1.2344843286
 S          3.7590405039        1.7081255584        3.0809375572
 O          4.3143864786        0.5006396249        3.6600041043
 O          4.5856606997        2.3926409968        2.1034821882
 C          3.3798035758        2.8514631790        4.4025839769
 N          2.0206784154       -0.6746113292       -1.2045226475
 C          1.2461683797       -1.2201866173       -2.1885275901
 N          1.9067532030       -1.7735234271       -3.1567061425
 C          3.2267391632       -1.6031877732       -2.8250364299
 C          3.3217020202       -0.9074339955       -1.5920805884
 C          4.6114898787       -0.6441308003       -1.1023845539
 C          5.2488261478       -0.0193959861        0.0058819901
 C          6.5945196167       -0.1442187515       -0.1821523002
 N          6.8473357499       -0.8092243225       -1.3423843067
 C          5.6657412818       -1.1290664871       -1.9310287316
 N          5.5741482870       -1.7861007947       -3.0901609673
 C          4.3579852997       -2.0184588020       -3.5315863393
 H          3.1273853926        1.4505234316       -0.1808986510
 H          1.5757715233        2.0081278007       -0.8048829376
 H          2.3175798852        3.0975553883        1.3492411119
 H          0.7176768102        2.3320299642        1.4725305622
 H          2.3215320751       -0.4665501650        3.3459240014
 H          0.7164372763        0.0343660854        2.7616291773
 H          1.5800547747       -1.7364369562        1.2917865505
 H          3.1288078216       -0.9081954814        1.1454158600
 H          0.1773615597       -1.1996621297       -2.1753232341
 H          4.8061191214        0.4708427532        0.8501392548
 H          7.3886489677        0.2047605987        0.4470017250
 H          4.2681094175       -2.5477884845       -4.4677655180
 H          7.7518989615       -1.0354227809       -1.7204701341
 H         -0.3706495084        0.5048788371        0.8913325524
 H         -0.3719328429        0.5224438577       -0.8782691142
 H         -0.3900281980       -1.0071228843       -0.0183254877
 H          2.4442154852        2.5494848167        4.8498665549
 H          3.3196226821        3.8342008598        3.9589563641
 H          4.1912469595        2.8032004648        5.1156210040
  42
    -9.173903 !GC
 C          0.0000000000        0.0000000000        0.0000000000
 C          1.5298417611        0.0000000000        0.0000000000
 C          2.0564154374        1.4461856103        0.0000000000
 C          1.7686711996        2.1496681560        1.3273233398
 N          2.2494850366        1.3969490819        2.4656232278
 C          1.8005810183        0.0212207853        2.5293511778
 C          2.0551242863       -0.7538548730        1.2334164909
 S          3.7759501960        1.7167315646        3.0261445731
 O          4.6622405815        0.5782895831        2.8516204259
 O          4.2286991584        2.9597928271        2.4362278396
 C          3.5042533686        1.9759201678        4.7772307646
 N          2.0229851522       -0.6768564830       -1.2025035137
 C          1.2512093269       -1.2233228862       -2.1879928597
 N          1.9142894942       -1.7688698017       -3.1589612600
 C          3.2335539730       -1.5897859087       -2.8286447718
 C          3.3251599185       -0.8990213394       -1.5922158264
 C          4.6132549020       -0.6288133746       -1.1018430535
 C          5.2466581837       -0.0074027267        0.0105632172
 C          6.5931636632       -0.1190610347       -0.1802750878
 N          6.8500200507       -0.7726175516       -1.3461098030
 C          5.6704607668       -1.0985950820       -1.9353922403
 N          5.5827750678       -1.7500886260       -3.0980571484
 C          4.3680441563       -1.9923502735       -3.5380567399
 H          3.1342890473        1.4414424136       -0.1657297647
 H          1.5933235183        2.0051159887       -0.8143514526
 H          2.2824717032        3.1103990116        1.3524580910
 H          0.6971001460        2.3146554678        1.4601445016
 H          2.3469280670       -0.4561813776        3.3419589258
 H          0.7359358032        0.0294966936        2.7746350247
 H          1.5704102565       -1.7291839021        1.2985492681
 H          3.1269268755       -0.9170018105        1.1305911487
 H          0.1823415727       -1.2098322846       -2.1735580860
 H          4.8005286599        0.4699445535        0.8603275204
 H          7.3849839915        0.2321439344        0.4505243128
 H          4.2812939663       -2.5164719301       -4.4774722626
 H          7.7558731411       -0.9887713077       -1.7268920919
 H         -0.3841634425        0.5516974136       -0.8538961853
 H         -0.3854299399       -1.0159227792       -0.0213299989
 H         -0.3634450007        0.4794189546        0.9015565043
 H          2.8232082305        2.8057025740        4.8856388233
 H          4.4710035894        2.1767353075        5.2154833105
 H          3.0776468436        1.0702643958        5.1898957919
  42
    -9.157675 !GC
 C          0.0000000000        0.0000000000        0.0000000000
 C          1.5294978334        0.0000000000        0.0000000000
 C          2.0555094808        1.4459115182        0.0000000000
 C          1.7977295261        2.1496504450        1.3354251519
 N          2.2423056859        1.3802161293        2.4789346558
 C          1.7672959804        0.0146806008        2.5291812969
 C          2.0575101988       -0.7524035174        1.2380419339
 S          3.7526232441        1.7186485981        3.0675268451
 O          4.1989616892        0.5877769346        3.8552129557
 O          4.6571502307        2.1510566774        2.0147685530
 C          3.4439259426        3.0985675872        4.1670799832
 N          2.0187534718       -0.6752007518       -1.2048115750
 C          1.2434847794       -1.2298502337       -2.1830333266
 N          1.9034069724       -1.7826418975       -3.1520035625
 C          3.2236986962       -1.6012055520       -2.8274273880
 C          3.3194870019       -0.9008103457       -1.5971418302
 C          4.6098002013       -0.6274133712       -1.1139717446
 C          5.2479202039        0.0036220509       -0.0096350601
 C          6.5936056208       -0.1105247130       -0.2046266863
 N          6.8456845490       -0.7752105577       -1.3651769580
 C          5.6636456472       -1.1054968703       -1.9470781187
 N          5.5711591489       -1.7653393545       -3.1045795785
 C          4.3545939523       -2.0089447168       -3.5387030656
 H          3.1278196103        1.4415224650       -0.1900587601
 H          1.5738214666        2.0095958932       -0.8003177733
 H          2.3453811497        3.0912089191        1.3514173723
 H          0.7328184260        2.3568288569        1.4660023565
 H          2.2826139649       -0.4610165235        3.3633787454
 H          0.6954447091        0.0375523845        2.7386994242
 H          1.5988989607       -1.7408345317        1.2918148803
 H          3.1357941794       -0.8871617689        1.1475905102
 H          0.1747311469       -1.2157796543       -2.1652715762
 H          4.8058377613        0.4908074561        0.8368102456
 H          7.3881371324        0.2458200213        0.4199974456
 H          4.2642939028       -2.5417935413       -4.4728960176
 H          7.7499862443       -0.9947069587       -1.7477958382
 H         -0.3863639295        0.5081667580       -0.8793746478
 H         -0.3858753246       -1.0153565840        0.0313037311
 H         -0.3607999287        0.5240824436        0.8776831516
 H          4.3876457704        3.3771297911        4.6167756664
 H          2.7396419015        2.7546709454        4.9107734249
 H          3.0410096018        3.9114760667        3.5806184843
  42
    -9.121722 !GC
 C          0.0000000000        0.0000000000        0.0000000000
 C          1.5294683106        0.0000000000        0.0000000000
 C          2.0551727334        1.4456811871        0.0000000000
 C          1.8000225388        2.1485277466        1.3350584468
 N          2.2799120071        1.3884670865        2.4719605962
 C          1.7833707346        0.0290195544        2.5520749416
 C          2.0298180206       -0.7740803665        1.2742301877
 S          3.8679400190        1.6232048620        2.9042468595
 O          4.4129381869        0.3875332889        3.4327556189
 O          4.5989696794        2.2094303658        1.7954801962
 C          3.7632429281        2.8224913109        4.2331313799
 N          2.0220170188       -0.6770120485       -1.2026376778
 C          1.2489521671       -1.2250172991       -2.1864242077
 N          1.9110316901       -1.7760051948       -3.1549149198
 C          3.2306428812       -1.6001252797       -2.8242745700
 C          3.3237772901       -0.9048623764       -1.5905935423
 C          4.6125964036       -0.6351971006       -1.1017620661
 C          5.2475860909       -0.0090963886        0.0071070520
 C          6.5937489216       -0.1235152604       -0.1840485899
 N          6.8490064558       -0.7836950212       -1.3464517200
 C          5.6686705363       -1.1113532556       -1.9333535114
 N          5.5793161061       -1.7678347067       -3.0930978513
 C          4.3638818834       -2.0079526518       -3.5324579894
 H          3.1286492633        1.4455554382       -0.1882387749
 H          1.5745281024        2.0087264759       -0.8014768348
 H          2.3297510927        3.1003854377        1.3494979413
 H          0.7313840987        2.3232563746        1.4768624858
 H          2.3065657044       -0.4433874947        3.3831768117
 H          0.7162114497        0.0779065399        2.7824542801
 H          1.5336051850       -1.7423629598        1.3548221849
 H          3.1008983898       -0.9530600222        1.1818392348
 H          0.1800330231       -1.2081032564       -2.1725720323
 H          4.8029949922        0.4745159223        0.8543204756
 H          7.3866287706        0.2297716987        0.4442302227
 H          4.2754155202       -2.5368846977       -4.4690526560
 H          7.7544494740       -1.0037171222       -1.7262736056
 H         -0.3661330454       -1.0250097693       -0.0402530243
 H         -0.3969511467        0.5037552776        0.8741631052
 H         -0.3694371114        0.5069205033       -0.8840631473
 H          2.8813606413        2.5914501018        4.8140979424
 H          3.6930568960        3.7959769624        3.7688458723
 H          4.6643169325        2.7419792078        4.8266402780
  42
    -9.109483 !GC
 C          0.0000000000        0.0000000000        0.0000000000
 C          1.5295213002        0.0000000000        0.0000000000
 C          2.0565233262        1.4456855325        0.0000000000
 C          1.8037921604        2.1486446758        1.3368276394
 N          2.2495130525        1.3779891227        2.4791826374
 C          1.7685636900        0.0145182944        2.5293451704
 C          2.0564611627       -0.7531574691        1.2381431095
 S          3.7659448007        1.7066825460        3.0584043760
 O          4.1924791703        0.5865153637        3.8714633296
 O          4.6787153843        2.0992247352        1.9969461762
 C          3.4816159563        3.1164940573        4.1259618100
 N          2.0196462201       -0.6751048627       -1.2046068012
 C          1.2450758591       -1.2305854600       -2.1829439741
 N          1.9057579847       -1.7773933947       -3.1547822539
 C          3.2258204526       -1.5911855120       -2.8320521049
 C          3.3206752669       -0.8943128673       -1.5994021856
 C          4.6104243659       -0.6175118272       -1.1168523280
 C          5.2473842420        0.0111026916       -0.0104750582
 C          6.5932712701       -0.0959112322       -0.2081442613
 N          6.8464838916       -0.7532157626       -1.3726345925
 C          5.6650246571       -1.0866233613       -1.9541183452
 N          5.5738126836       -1.7420419320       -3.1142405759
 C          4.3575993769       -1.9907436271       -3.5467403994
 H          3.1280826186        1.4406992886       -0.1936952979
 H          1.5723418073        2.0105267340       -0.7979480733
 H          2.3522808964        3.0896481345        1.3516974237
 H          0.7394843434        2.3570381309        1.4705258427
 H          2.2810363068       -0.4633652894        3.3640336062
 H          0.6967134441        0.0422354438        2.7383137737
 H          1.5957635291       -1.7405731661        1.2920768841
 H          3.1344189721       -0.8900613170        1.1469952062
 H          0.1763055181       -1.2219763717       -2.1629274158
 H          4.8045955870        0.4912347247        0.8397018011
 H          7.3871296359        0.2607897432        0.4170276385
 H          4.2680811276       -2.5189032641       -4.4836232811
 H          7.7513401810       -0.9661958751       -1.7576579358
 H         -0.3830440252        0.5124935806       -0.8784500890
 H         -0.3864007018       -1.0154572031        0.0247492775
 H         -0.3636122589        0.5204916808        0.8786262442
 H          4.4247644195        3.3836002907        4.5772830321
 H          2.7545022482        2.8212689495        4.8707488176
 H          3.0936816159        3.9141797335        3.5072615711
  42
    -9.082440 !GC
 C          0.0000000000        0.0000000000        0.0000000000
 C          1.5297514264        0.0000000000        0.0000000000
 C          2.0559551279        1.4463643051        0.0000000000
 C          1.7725376220        2.1485368715        1.3290351968
 N          2.2567634040        1.3938495246        2.4644844529
 C          1.8045947670        0.0193538275        2.5284999001
 C          2.0559694881       -0.7555782406        1.2319224407
 S          3.7843028291        1.7111235183        3.0217573100
 O          4.6629380970        0.5645216043        2.8605899731
 O          4.2454208145        2.9451008929        2.4187377526
 C          3.5144709820        1.9899831486        4.7702968272
 N          2.0224551111       -0.6757758146       -1.2032156963
 C          1.2500395589       -1.2202955023       -2.1892752849
 N          1.9124419346       -1.7653719286       -3.1609096915
 C          3.2319148437       -1.5889534152       -2.8300066137
 C          3.3243543233       -0.8992306481       -1.5930094557
 C          4.6128528242       -0.6317494475       -1.1022482669
 C          5.2470873867       -0.0124810066        0.0108526147
 C          6.5934394136       -0.1265827957       -0.1796425800
 N          6.8494213365       -0.7797489732       -1.3459086301
 C          5.6694149978       -1.1033644363       -1.9356204676
 N          5.5808497510       -1.7533360889       -3.0990557489
 C          4.3657448479       -1.9926748507       -3.5396219359
 H          3.1333380017        1.4421536472       -0.1684968822
 H          1.5907214966        2.0061593112       -0.8125944229
 H          2.2866490687        3.1090974868        1.3533532464
 H          0.7014847536        2.3134809898        1.4656232375
 H          2.3510557479       -0.4599138375        3.3399429166
 H          0.7402243134        0.0301036975        2.7751171455
 H          1.5700335763       -1.7303482103        1.2967969494
 H          3.1274686132       -0.9200662821        1.1274849765
 H          0.1811533515       -1.2057143628       -2.1750638818
 H          4.8015175007        0.4649549196        0.8608836206
 H          7.3859061589        0.2222020585        0.4517077555
 H          4.2779975341       -2.5164270901       -4.4791726159
 H          7.7549606620       -0.9978935903       -1.7263877710
 H         -0.3690596223        0.4865163085        0.9023701470
 H         -0.3721791657        0.5414556491       -0.8667902997
 H         -0.3913482809       -1.0060400415       -0.0392378763
 H          3.0662037340        1.0906780660        5.1678980833
 H          2.8600556922        2.8425339631        4.8804784598
 H          4.4804313433        2.1774177007        5.2190559107
  42
    -9.058491 !GC
 C          0.0000000000        0.0000000000        0.0000000000
 C          1.5294688153        0.0000000000        0.0000000000
 C          2.0561408169        1.4458326502        0.0000000000
 C          1.8025017341        2.1488524452        1.3363523066
 N          2.2527932103        1.3790604171        2.4772381149
 C          1.7726182490        0.0151323088        2.5288833755
 C          2.0564394337       -0.7534413652        1.2371045062
 S          3.7726909068        1.7019104646        3.0512307463
 O          4.2430098438        0.5440761375        3.7843068441
 O          4.6522885213        2.1806505125        1.9979973934
 C          3.4799566082        3.0355151938        4.2103713677
 N          2.0199915101       -0.6744377489       -1.2049767565
 C          1.2450542582       -1.2302723968       -2.1829751393
 N          1.9053749660       -1.7761035674       -3.1555346801
 C          3.2255321068       -1.5883602207       -2.8341716638
 C          3.3209666974       -0.8923932856       -1.6010248674
 C          4.6109988823       -0.6149093870       -1.1197530285
 C          5.2488943088        0.0126595432       -0.0133529898
 C          6.5946292803       -0.0932862176       -0.2126047421
 N          6.8468706214       -0.7501537499       -1.3775370341
 C          5.6650040385       -1.0830744334       -1.9583286234
 N          5.5732025322       -1.7382253544       -3.1184956917
 C          4.3567904818       -1.9866127524       -3.5504945915
 H          3.1280824749        1.4405256358       -0.1925629851
 H          1.5729249072        2.0102703699       -0.7988041378
 H          2.3482840552        3.0914157828        1.3514531110
 H          0.7378234263        2.3537868047        1.4720196023
 H          2.2880144435       -0.4633021352        3.3614480025
 H          0.7015013253        0.0424899742        2.7414607707
 H          1.5929836899       -1.7394594475        1.2923316962
 H          3.1337787765       -0.8936069248        1.1451374607
 H          0.1763835934       -1.2229780292       -2.1620340240
 H          4.8069776481        0.4916349978        0.8379251079
 H          7.3890848318        0.2633221937        0.4118241539
 H          4.2666589385       -2.5148758216       -4.4872519203
 H          7.7514073574       -0.9633829862       -1.7631995273
 H         -0.4147868470        0.4972961827        0.8677572202
 H         -0.3656804024        0.4687643836       -0.9131297859
 H         -0.3518119072       -1.0262173013       -0.0019802006
 H          2.7668454297        2.6950166919        4.9470545695
 H          3.0947902016        3.8692766551        3.6406657801
 H          4.4292487892        3.2792439589        4.6677620481
  42
    -9.047055 !GC
 C          0.0000000000        0.0000000000        0.0000000000
 C          1.5298637139        0.0000000000        0.0000000000
 C          2.0563348559        1.4462257598        0.0000000000
 C          1.7682940752        2.1485329583        1.3278140319
 N          2.2544446973        1.3961730044        2.4639082982
 C          1.8059542100        0.0203938482        2.5287434293
 C          2.0558997235       -0.7552176210        1.2320969789
 S          3.7831504178        1.7128781307        3.0195187369
 O          4.6867071052        0.5975763612        2.7872107420
 O          4.2068443866        2.9870598038        2.4767043536
 C          3.5310939908        1.8931221234        4.7835528588
 N          2.0231478843       -0.6755914351       -1.2030741650
 C          1.2515385279       -1.2203497039       -2.1895369732
 N          1.9146898614       -1.7663616237       -3.1601594578
 C          3.2339080725       -1.5891282217       -2.8285708660
 C          3.3253144529       -0.8990860017       -1.5918111320
 C          4.6133459168       -0.6311952282       -1.0999835224
 C          5.2463384843       -0.0112399814        0.0133836147
 C          6.5928751410       -0.1245809323       -0.1761281202
 N          6.8501296700       -0.7781726351       -1.3418495740
 C          5.6707829676       -1.1025878828       -1.9323326336
 N          5.5831734540       -1.7527288676       -3.0957165507
 C          4.3684919837       -1.9923240107       -3.5372933080
 H          3.1344426318        1.4414052769       -0.1651665484
 H          1.5938751071        2.0053228972       -0.8146737402
 H          2.2791663567        3.1108025906        1.3532562851
 H          0.6964551220        2.3096436889        1.4630180361
 H          2.3545213501       -0.4578710934        3.3392581901
 H          0.7420235841        0.0286264634        2.7772259386
 H          1.5690702534       -1.7294671142        1.2980518397
 H          3.1270961395       -0.9206598910        1.1275639216
 H          0.1825976412       -1.2061498491       -2.1759132508
 H          4.7997468574        0.4655794309        0.8631332744
 H          7.3848626356        0.2247215873        0.4556443232
 H          4.2819767241       -2.5170117693       -4.4764757674
 H          7.7561052229       -0.9955766219       -1.7217373871
 H         -0.3834362725        0.5575900341       -0.8503117109
 H         -0.3857080258       -1.0155813492       -0.0291069276
 H         -0.3644781282        0.4729688239        0.9046263457
 H          2.8544939890        2.7243948866        4.9190926763
 H          4.4946502622        2.0919332828        5.2336122682
 H          3.1127774536        0.9706611265        5.1592880550
  42
    -9.042896 !GC
 C          0.0000000000        0.0000000000        0.0000000000
 C          1.5295541033        0.0000000000        0.0000000000
 C          2.0558558418        1.4459148406        0.0000000000
 C          1.7979069100        2.1488801033        1.3355555097
 N          2.2474746017        1.3799909903        2.4772005403
 C          1.7714434147        0.0147223267        2.5288378742
 C          2.0567973975       -0.7532301611        1.2370000609
 S          3.7624810122        1.7104731053        3.0594389051
 O          4.2511297486        0.5442645612        3.7670240405
 O          4.6334530975        2.2256169720        2.0164739305
 C          3.4484530420        3.0137851082        4.2468683282
 N          2.0197184207       -0.6750629767       -1.2046162394
 C          1.2453822568       -1.2302875346       -2.1833143743
 N          1.9063531241       -1.7792240434       -3.1537693183
 C          3.2263322688       -1.5943791897       -2.8299076729
 C          3.3208701671       -0.8964037717       -1.5980128463
 C          4.6104225711       -0.6204191041       -1.1145847188
 C          5.2471393270        0.0084083684       -0.0082991928
 C          6.5931056860       -0.1010400422       -0.2042682355
 N          6.8465589888       -0.7615050912       -1.3669779213
 C          5.6651974684       -1.0928322393       -1.9497339072
 N          5.5742486521       -1.7505324440       -3.1085240538
 C          4.3582685867       -1.9970561384       -3.5427074724
 H          3.1284041359        1.4414547250       -0.1895497564
 H          1.5746696876        2.0097537604       -0.8004925562
 H          2.3426298543        3.0921304712        1.3516721861
 H          0.7325850048        2.3520901181        1.4685219825
 H          2.2886920301       -0.4626330679        3.3608375508
 H          0.7003158628        0.0387515455        2.7419798052
 H          1.5943159673       -1.7397444210        1.2917261107
 H          3.1343034754       -0.8922530608        1.1454713775
 H          0.1766727848       -1.2201371754       -2.1645055270
 H          4.8046173216        0.4907785671        0.8407007034
 H          7.3869711933        0.2552164006        0.4210957096
 H          4.2690453746       -2.5276941083       -4.4782095065
 H          7.7514220881       -0.9764210727       -1.7508454975
 H         -0.3836636487        0.5163601167       -0.8757624073
 H         -0.3859488853       -1.0154442067        0.0208065411
 H         -0.3632162182        0.5164336207        0.8810213734
 H          2.9986101840        3.8407145076        3.7136867475
 H          4.4079938567        3.2782462355        4.6643331665
 H          2.7722102662        2.6403642058        5.0038966073
  42
    -9.016537 !GC
 C          0.0000000000        0.0000000000        0.0000000000
 C          1.5295500660        0.0000000000        0.0000000000
 C          2.0551639148        1.4460326800        0.0000000000
 C          1.8008292195        2.1487658931        1.3366748204
 N          2.2470882838        1.3783189416        2.4790947817
 C          1.7682847111        0.0141671978        2.5291362956
 C          2.0572389613       -0.7533254693        1.2380284238
 S          3.7604574347        1.7155764614        3.0605609232
 O          4.1683962199        0.6190292587        3.9136582669
 O          4.6882316861        2.0667681439        1.9973297658
 C          3.4763779739        3.1617735782        4.0784755793
 N          2.0200407947       -0.6750323056       -1.2045352456
 C          1.2458924932       -1.2264046102       -2.1856670400
 N          1.9070490760       -1.7749851707       -3.1561718127
 C          3.2270061771       -1.5940752302       -2.8298521974
 C          3.3212394426       -0.8981054284       -1.5966269044
 C          4.6106820169       -0.6256584718       -1.1109472457
 C          5.2468457640        0.0015226856       -0.0033161968
 C          6.5928574251       -0.1117938228       -0.1965037183
 N          6.8468628099       -0.7728723180       -1.3587554377
 C          5.6658288868       -1.1007257562       -1.9441464617
 N          5.5752794874       -1.7569124152       -3.1038927359
 C          4.3593409842       -1.9993708952       -3.5406467407
 H          3.1268256062        1.4422185772       -0.1923985553
 H          1.5714497257        2.0101466775       -0.7988165339
 H          2.3479284744        3.0905815033        1.3514344977
 H          0.7361650802        2.3556111985        1.4697095902
 H          2.2820918124       -0.4623876488        3.3638172248
 H          0.6964466922        0.0401735835        2.7385269192
 H          1.5970155575       -1.7410820240        1.2917212910
 H          3.1354047783       -0.8896730208        1.1471457660
 H          0.1771580614       -1.2134494138       -2.1686188904
 H          4.8031819544        0.4861377184        0.8437950251
 H          7.3862079149        0.2428520919        0.4304481649
 H          4.2703920232       -2.5271991017       -4.4777838178
 H          7.7518601846       -0.9911142685       -1.7404595714
 H         -0.3861506768        0.5194283450       -0.8730008298
 H         -0.3854562250       -1.0159827037        0.0180432773
 H         -0.3613091846        0.5129979301        0.8841182323
 H          4.4166570337        3.4344362056        4.5328115161
 H          2.7376797771        2.8959188071        4.8230176458
 H          3.1030314470        3.9434908677        3.4308841649
  42
    -9.014813 !GC
 C          0.0000000000        0.0000000000        0.0000000000
 C          1.5294577127        0.0000000000        0.0000000000
 C          2.0576168270        1.4456817630        0.0000000000
 C          1.7717264531        2.1495823965        1.3276175454
 N          2.2511436052        1.3963597256        2.4660107975
 C          1.8023925647        0.0209333027        2.5301137983
 C          2.0563627078       -0.7550654692        1.2346634610
 S          3.7696407786        1.7201237347        3.0427689815
 O          4.6592897079        0.5817014220        2.8830411524
 O          4.2273592939        2.9628522582        2.4556159070
 C          3.4777220416        1.9827622637        4.7901981677
 N          2.0198781953       -0.6763486906       -1.2038780336
 C          1.2452582423       -1.2200489407       -2.1888618056
 N          1.9058740114       -1.7662266099       -3.1610453684
 C          3.2259329367       -1.5920417482       -2.8317125909
 C          3.3209553402       -0.9023043544       -1.5949883256
 C          4.6107057831       -0.6374931757       -1.1057911069
 C          5.2479619863       -0.0205170608        0.0069086356
 C          6.5937753404       -0.1371016691       -0.1856953919
 N          6.8467154450       -0.7908564365       -1.3522237487
 C          5.6651314259       -1.1112999843       -1.9407023799
 N          5.5738855747       -1.7608258353       -3.1041377709
 C          4.3576686301       -1.9977379792       -3.5431619533
 H          3.1353011468        1.4396693905       -0.1661221588
 H          1.5953933954        2.0055930120       -0.8142019702
 H          2.2868525903        3.1096564836        1.3526504735
 H          0.7003458242        2.3164302887        1.4602887166
 H          2.3493403293       -0.4562503568        3.3424208617
 H          0.7377269238        0.0287604167        2.7760265616
 H          1.5726287727       -1.7307019572        1.3012672178
 H          3.1282122993       -0.9173442966        1.1308190904
 H          0.1764778082       -1.2045144026       -2.1727823738
 H          4.8056327242        0.4577474895        0.8583025391
 H          7.3878340976        0.2092736848        0.4450661202
 H          4.2679754145       -2.5203544241       -4.4831616742
 H          7.7514869191       -1.0100168839       -1.7341175272
 H         -0.4147605080       -0.9990275769       -0.0498218804
 H         -0.3742625266        0.5047698755        0.8877295823
 H         -0.3434248733        0.5662598245       -0.8619647547
 H          3.0477303053        1.0702852718        5.1775078935
 H          2.7956359332        2.8168405252        4.8747669377
 H          4.4211444474        2.2051759212        5.2701439835
  42
    -8.980053 !GC
 C          0.0000000000        0.0000000000        0.0000000000
 C          1.5297587440        0.0000000000        0.0000000000
 C          2.0566385492        1.4461415164        0.0000000000
 C          1.7739659175        2.1481232238        1.3292984055
 N          2.2587921793        1.3935661206        2.4646448554
 C          1.8053863421        0.0194139147        2.5284308940
 C          2.0557858565       -0.7557828741        1.2318739354
 S          3.7893338880        1.7079500148        3.0164684756
 O          4.6727220940        0.5684327775        2.8318318253
 O          4.2401780922        2.9526269438        2.4282250753
 C          3.5311769267        1.9600511488        4.7707966820
 N          2.0231500686       -0.6762314413       -1.2027303846
 C          1.2517705405       -1.2240317243       -2.1877949548
 N          1.9152882586       -1.7645486359       -3.1612508073
 C          3.2345079940       -1.5804739595       -2.8331354927
 C          3.3254912657       -0.8925835802       -1.5948693243
 C          4.6131925743       -0.6193346728       -1.1052841854
 C          5.2455830264       -0.0013364029        0.0095421315
 C          6.5922313012       -0.1052575713       -0.1843936074
 N          6.8501198494       -0.7520978703       -1.3537863958
 C          5.6710705261       -1.0811949897       -1.9424062614
 N          5.5841728490       -1.7276516986       -3.1079318923
 C          4.3697061894       -1.9742632740       -3.5462850296
 H          3.1339691134        1.4411785307       -0.1690093220
 H          1.5914509708        2.0063750100       -0.8123321047
 H          2.2877458881        3.1088727886        1.3538464454
 H          0.7029112412        2.3126563451        1.4664153757
 H          2.3509758852       -0.4607015825        3.3398557845
 H          0.7410332116        0.0313519054        2.7751263731
 H          1.5691173309       -1.7300627223        1.2972465512
 H          3.1270454099       -0.9211123663        1.1269663401
 H          0.1828409604       -1.2159402894       -2.1707864080
 H          4.7986401535        0.4681235622        0.8632575052
 H          7.3836210336        0.2462250949        0.4467729476
 H          4.2836951200       -2.4961501493       -4.4870499899
 H          7.7563605074       -0.9624043804       -1.7369719169
 H         -0.3968184139       -1.0099790233       -0.0390248772
 H         -0.3575055099        0.4976872874        0.9020362052
 H         -0.3785509542        0.5562699791       -0.8462805620
 H          3.1021362335        1.0478233031        5.1601488056
 H          2.8629204465        2.7992365692        4.8992068126
 H          4.4980270199        2.1576063223        5.2133689523
  42
    -8.968242 !GC
 C          0.0000000000        0.0000000000        0.0000000000
 C          1.5295041417        0.0000000000        0.0000000000
 C          2.0561754415        1.4458151814        0.0000000000
 C          1.8007007292        2.1491065719        1.3362133504
 N          2.2440660746        1.3787903521        2.4796052744
 C          1.7665583221        0.0141716484        2.5293140184
 C          2.0570602982       -0.7526271499        1.2382620947
 S          3.7554387712        1.7140265854        3.0674756756
 O          4.1930893761        0.5876335363        3.8661446726
 O          4.6649813496        2.1313393271        2.0127927033
 C          3.4524982405        3.1054470394        4.1538755150
 N          2.0189042886       -0.6757896473       -1.2043901093
 C          1.2441585601       -1.2331441191       -2.1814485703
 N          1.9046816599       -1.7821994263       -3.1521632172
 C          3.2248078566       -1.5951039608       -2.8301058986
 C          3.3198646538       -0.8956151155       -1.5990279777
 C          4.6097221685       -0.6170736437       -1.1176150162
 C          5.2469781405        0.0142139503       -0.0128678428
 C          6.5928231614       -0.0917284313       -0.2114937538
 N          6.8457528305       -0.7507380894       -1.3750909523
 C          5.6641513796       -1.0866426454       -1.9547621551
 N          5.5726366023       -1.7445689973       -3.1134142560
 C          4.3564374818       -1.9953201836       -3.5445583263
 H          3.1281170506        1.4413956709       -0.1919532216
 H          1.5731146493        2.0103270978       -0.7988629271
 H          2.3499419280        3.0897072002        1.3520019652
 H          0.7362449401        2.3581834161        1.4674248716
 H          2.2799855344       -0.4625695444        3.3640796263
 H          0.6944797289        0.0388682525        2.7376023902
 H          1.5986298139       -1.7410947924        1.2917118287
 H          3.1353474711       -0.8872000426        1.1477461757
 H          0.1753759577       -1.2242018484       -2.1610769888
 H          4.8043828162        0.4953964559        0.8368261516
 H          7.3867152444        0.2669936358        0.4124634468
 H          4.2669263944       -2.5262677640       -4.4798533836
 H          7.7505198908       -0.9633529912       -1.7604943237
 H         -0.4033057340       -1.0057841385       -0.0182907493
 H         -0.3974621845        0.5470799674        0.8496644899
 H         -0.3314037204        0.4995635635       -0.9078725187
 H          2.7502502860        2.7730539823        4.9050173292
 H          3.0433689281        3.8964441577        3.5419890636
 H          4.3884962309        3.4046533785        4.6056622541
  42
    -8.937996 !GC
 C          0.0000000000        0.0000000000        0.0000000000
 C          1.5294940484        0.0000000000        0.0000000000
 C          2.0563699508        1.4457680275        0.0000000000
 C          1.8025697888        2.1487687019        1.3366153993
 N          2.2483694373        1.3779421220        2.4786511675
 C          1.7696761485        0.0138448497        2.5292635953
 C          2.0570076898       -0.7533590882        1.2377181520
 S          3.7609911271        1.7123025415        3.0636474008
 O          4.2057344269        0.5807908612        3.8511265990
 O          4.6648064453        2.1413307951        2.0087755969
 C          3.4584989886        3.0943895474        4.1619212901
 N          2.0194111701       -0.6754832706       -1.2044227089
 C          1.2448340276       -1.2312856091       -2.1825231377
 N          1.9054790420       -1.7760905238       -3.1555149414
 C          3.2255434186       -1.5874888816       -2.8340919654
 C          3.3205022718       -0.8917228925       -1.6007111611
 C          4.6102441092       -0.6130451563       -1.1190863275
 C          5.2473204259        0.0142640747       -0.0119929563
 C          6.5932084653       -0.0890328954       -0.2118642062
 N          6.8463304010       -0.7425021049       -1.3785281276
 C          5.6648356616       -1.0776477465       -1.9588279852
 N          5.5736192639       -1.7312013508       -3.1199501463
 C          4.3575318271       -1.9829965803       -3.5508152995
 H          3.1281732740        1.4414393778       -0.1928143098
 H          1.5726854247        2.0105053631       -0.7983232587
 H          2.3515382569        3.0895554061        1.3519271102
 H          0.7382409663        2.3572455667        1.4697594767
 H          2.2843149229       -0.4636440918        3.3628087541
 H          0.6980385801        0.0396229411        2.7396311129
 H          1.5962734830       -1.7407275126        1.2917811682
 H          3.1348682636       -0.8905050492        1.1460634515
 H          0.1760619888       -1.2248522212       -2.1609008069
 H          4.8047086986        0.4912195963        0.8400660658
 H          7.3870687893        0.2680463581        0.4130835977
 H          4.2681804459       -2.5106343086       -4.4880107505
 H          7.7511339198       -0.9527346716       -1.7651699179
 H         -0.4136991626        0.4984442799        0.8677912291
 H         -0.3658899743        0.4685295998       -0.9134806539
 H         -0.3525732787       -1.0260842625       -0.0008526518
 H          2.7576189018        2.7555600306        4.9111979261
 H          3.0482989449        3.8905586028        3.5578894307
 H          4.3950501032        3.3897873987        4.6147851916
  42
    -8.936877 !GC
 C          0.0000000000        0.0000000000        0.0000000000
 C          1.5294801702        0.0000000000        0.0000000000
 C          2.0558794674        1.4458010484        0.0000000000
 C          1.8025649156        2.1491826299        1.3364140218
 N          2.2487575923        1.3789054228        2.4789017557
 C          1.7688869137        0.0149472756        2.5291158814
 C          2.0572292852       -0.7528648065        1.2379626288
 S          3.7653040694        1.7079791049        3.0574217138
 O          4.1959291920        0.5847754981        3.8643112920
 O          4.6754788164        2.1073953519        1.9963583756
 C          3.4804765860        3.1121367924        4.1325063142
 N          2.0194532026       -0.6742678616       -1.2051943334
 C          1.2440858455       -1.2293352481       -2.1831941883
 N          1.9038946956       -1.7784739937       -3.1542415360
 C          3.2242089684       -1.5941893394       -2.8315056134
 C          3.3201587490       -0.8962612045       -1.5997324732
 C          4.6105142636       -0.6216509929       -1.1175478093
 C          5.2487255366        0.0075216490       -0.0122313643
 C          6.5943542104       -0.1040593764       -0.2087423635
 N          6.8463335516       -0.7648120354       -1.3715205453
 C          5.6642962230       -1.0955513170       -1.9532229528
 N          5.5717715018       -1.7521694498       -3.1125872078
 C          4.3550533540       -1.9971890889       -3.5456544634
 H          3.1275618772        1.4404805031       -0.1931925679
 H          1.5721657562        2.0101998155       -0.7985889307
 H          2.3505855780        3.0904929119        1.3512939789
 H          0.7381310955        2.3571312567        1.4699934680
 H          2.2820624362       -0.4623703351        3.3636977791
 H          0.6970852156        0.0416427093        2.7382217870
 H          1.5970996027       -1.7405531821        1.2922078433
 H          3.1353151159       -0.8891984141        1.1471760001
 H          0.1753408047       -1.2188675534       -2.1637515559
 H          4.8066121777        0.4917019379        0.8359018845
 H          7.3890235305        0.2517433994        0.4159976479
 H          4.2644772289       -2.5271964824       -4.4814357244
 H          7.7506268246       -0.9820391774       -1.7553873430
 H         -0.3970459831       -1.0103528793        0.0187661951
 H         -0.3542542060        0.5465942964        0.8746727892
 H         -0.3814918383        0.5090920532       -0.8740125820
 H          2.7549092397        2.7996126737        4.8695246441
 H          3.1170276774        3.9342640089        3.5331417329
 H          4.4265686808        3.3603221971        4.5946619496
  42
    -8.917271 !GC
 C          0.0000000000        0.0000000000        0.0000000000
 C          1.5298369668        0.0000000000        0.0000000000
 C          2.0564795447        1.4461346062        0.0000000000
 C          1.7695440298        2.1484290162        1.3280966924
 N          2.2558901918        1.3957660191        2.4639161485
 C          1.8067895969        0.0202106378        2.5289432052
 C          2.0559041629       -0.7552688109        1.2321145181
 S          3.7850880638        1.7114247939        3.0186835386
 O          4.6877464145        0.5954800422        2.7859461699
 O          4.2093733054        2.9852549791        2.4755694099
 C          3.5339649546        1.8917877590        4.7828181134
 N          2.0230410480       -0.6756945336       -1.2030414169
 C          1.2513967004       -1.2214239470       -2.1889283808
 N          1.9145339091       -1.7646012363       -3.1611294625
 C          3.2337274603       -1.5848663029       -2.8310767446
 C          3.3252142487       -0.8958822807       -1.5936423829
 C          4.6132025639       -0.6254872906       -1.1031778092
 C          5.2461427424       -0.0059244105        0.0104416876
 C          6.5926816085       -0.1155726554       -0.1811392588
 N          6.8499338721       -0.7656469251       -1.3488337403
 C          5.6706240630       -1.0921528260       -1.9381796093
 N          5.5830142455       -1.7411391811       -3.1021932352
 C          4.3683700986       -1.9837724427       -3.5421371257
 H          3.1344442274        1.4408850581       -0.1661412112
 H          1.5935195744        2.0053742109       -0.8142785704
 H          2.2809471233        3.1104921258        1.3532121495
 H          0.6978306652        2.3099165505        1.4640018708
 H          2.3552746605       -0.4584722361        3.3393271481
 H          0.7429186210        0.0289671162        2.7774912220
 H          1.5690754688       -1.7294704635        1.2983719853
 H          3.1269828580       -0.9209503600        1.1272121755
 H          0.1824460091       -1.2100975813       -2.1736595238
 H          4.7995357247        0.4674380492        0.8621249640
 H          7.3846656150        0.2341371393        0.4504062135
 H          4.2818820382       -2.5072306325       -4.4820517027
 H          7.7558763143       -0.9800261558       -1.7303602473
 H         -0.3692397793        0.4785685972        0.9064411792
 H         -0.3721601405        0.5494193359       -0.8617614008
 H         -0.3919864363       -1.0054019891       -0.0483963512
 H          3.1083749319        0.9737948939        5.1616556752
 H          2.8678988287        2.7313597157        4.9200096389
 H          4.5012744623        2.0819464717        5.2283745165
  42
    -8.908377 !GC
 C          0.0000000000        0.0000000000        0.0000000000
 C          1.5298251072        0.0000000000        0.0000000000
 C          2.0561980283        1.4462820536        0.0000000000
 C          1.7712943667        2.1484108675        1.3287791580
 N          2.2557092787        1.3944872762        2.4647218937
 C          1.8041398184        0.0197823735        2.5285885275
 C          2.0558832532       -0.7552356718        1.2321447295
 S          3.7844234774        1.7118517612        3.0197488411
 O          4.6662789190        0.5692850150        2.8480388458
 O          4.2397902320        2.9510858960        2.4234220952
 C          3.5192470574        1.9784664935        4.7708190197
 N          2.0233029995       -0.6760994930       -1.2027561371
 C          1.2520430989       -1.2218324941       -2.1890516205
 N          1.9156679363       -1.7659900116       -3.1603938044
 C          3.2347952698       -1.5866100892       -2.8295272089
 C          3.3256377236       -0.8971255196       -1.5922550597
 C          4.6133626668       -0.6273227859       -1.1007680561
 C          5.2457436703       -0.0077503748        0.0132114710
 C          6.5924105019       -0.1182335660       -0.1771156274
 N          6.8502884731       -0.7701251225       -1.3436873955
 C          5.6712510511       -1.0959447373       -1.9341207730
 N          5.5843447814       -1.7453806005       -3.0979857877
 C          4.3698799300       -1.9873362114       -3.5389565022
 H          3.1337460881        1.4419630259       -0.1676972409
 H          1.5916367086        2.0058950276       -0.8131124089
 H          2.2844047539        3.1094830128        1.3534946805
 H          0.6999576916        2.3122428857        1.4646961646
 H          2.3502349579       -0.4591778199        3.3404067868
 H          0.7396981180        0.0301742456        2.7748765034
 H          1.5700713659       -1.7300321864        1.2971290225
 H          3.1274151977       -0.9195288899        1.1280747736
 H          0.1831172618       -1.2095442130       -2.1746299129
 H          4.7987072904        0.4672755727        0.8637957888
 H          7.3838229689        0.2319753224        0.4547506496
 H          4.2838183739       -2.5103841501       -4.4790605102
 H          7.7565383008       -0.9854559154       -1.7241197939
 H         -0.3837187707        0.5556847691       -0.8514998590
 H         -0.3854721389       -1.0158084617       -0.0264202356
 H         -0.3640785684        0.4752242517        0.9036297633
 H          4.4896794103        2.1897762563        5.1928234108
 H          3.0916392674        1.0716908673        5.1775886353
 H          2.8369811158        2.8077105414        4.8994217373
  42
    -8.902790 !GC
 C          0.0000000000        0.0000000000        0.0000000000
 C          1.5295296271        0.0000000000        0.0000000000
 C          2.0563801140        1.4456313245        0.0000000000
 C          1.8001696293        2.1493656762        1.3357139425
 N          2.2445554264        1.3796079171        2.4791414332
 C          1.7671468784        0.0149019721        2.5292714411
 C          2.0570500917       -0.7524826409        1.2382147680
 S          3.7573245485        1.7135085840        3.0642150913
 O          4.1927303357        0.5885060518        3.8660105759
 O          4.6675891968        2.1244813998        2.0076856188
 C          3.4601268331        3.1098027457        4.1460765615
 N          2.0191463978       -0.6749810695       -1.2048775709
 C          1.2439136069       -1.2305700000       -2.1826579784
 N          1.9039228659       -1.7815880777       -3.1525408777
 C          3.2241848020       -1.5979282342       -2.8291987904
 C          3.3199105956       -0.8981628223       -1.5984785370
 C          4.6101757464       -0.6239027073       -1.1157384566
 C          5.2482066961        0.0060216884       -0.0107487264
 C          6.5938988832       -0.1057155980       -0.2070021609
 N          6.8460335080       -0.7695807131       -1.3679943355
 C          5.6640758842       -1.1004540160       -1.9497106016
 N          5.5717431144       -1.7591144134       -3.1078933117
 C          4.3551677067       -2.0033528490       -3.5417362962
 H          3.1285051988        1.4403646032       -0.1910460231
 H          1.5743126368        2.0097412151       -0.7997851759
 H          2.3482077937        3.0906623864        1.3513782952
 H          0.7354474821        2.3572093940        1.4670722200
 H          2.2810185335       -0.4614379040        3.3639895414
 H          0.6952318890        0.0396217867        2.7381237172
 H          1.5978534191       -1.7405827052        1.2921062392
 H          3.1352663263       -0.8878911109        1.1478660376
 H          0.1751561473       -1.2190923544       -2.1637254971
 H          4.8061991943        0.4909101800        0.8370369464
 H          7.3885333208        0.2513100986        0.4170946005
 H          4.2649710259       -2.5351822913       -4.4765336231
 H          7.7503710264       -0.9883442528       -1.7508712089
 H         -0.3653116250        0.5291509897        0.8796924736
 H         -0.3749462233        0.5004240180       -0.8898189998
 H         -0.3926820695       -1.0061511731        0.0104097949
 H          2.7374596559        2.7869820973        4.8816127710
 H          3.0886128489        3.9310515735        3.5503375864
 H          4.4036803659        3.3651172095        4.6096233100
  42
    -8.882010 !GC
 C          0.0000000000        0.0000000000        0.0000000000
 C          1.5298773398        0.0000000000        0.0000000000
 C          2.0560916682        1.4462786765        0.0000000000
 C          1.7664276647        2.1485289548        1.3274537692
 N          2.2522113329        1.3965267514        2.4639456454
 C          1.8050870306        0.0203067108        2.5287979018
 C          2.0559788311       -0.7550446957        1.2321512525
 S          3.7797161990        1.7150128106        3.0217109502
 O          4.6836419084        0.5991358042        2.7938262727
 O          4.2044774176        2.9879519524        2.4767496346
 C          3.5240281255        1.8993646757        4.7847499750
 N          2.0228692500       -0.6758826406       -1.2029584790
 C          1.2513451458       -1.2191751476       -2.1902697563
 N          1.9145806680       -1.7660046695       -3.1604002624
 C          3.2338068126       -1.5911134384       -2.8273834792
 C          3.3250341918       -0.9014333518       -1.5904424754
 C          4.6129043766       -0.6353828661       -1.0972588711
 C          5.2454945950       -0.0157322372        0.0164951688
 C          6.5920644547       -0.1313819590       -0.1712943809
 N          6.8497199869       -0.7862368369       -1.3362649550
 C          5.6705524100       -1.1089362726       -1.9280850478
 N          5.5831625300       -1.7590062121       -3.0915538602
 C          4.3685827553       -1.9963373936       -3.5346625892
 H          3.1343777641        1.4417305504       -0.1638651152
 H          1.5944973927        2.0050889592       -0.8153594124
 H          2.2763741838        3.1112603331        1.3533262395
 H          0.6943414206        2.3085837201        1.4616458256
 H          2.3543129427       -0.4574246718        3.3391964462
 H          0.7411722562        0.0274345772        2.7774633565
 H          1.5696928218       -1.7295849325        1.2977606007
 H          3.1272852570       -0.9198965405        1.1277576806
 H          0.1824244361       -1.2028400564       -2.1778235016
 H          4.7985241275        0.4625850378        0.8651964965
 H          7.3838297589        0.2171066311        0.4611970827
 H          4.2823654189       -2.5212472602       -4.4737544202
 H          7.7558378875       -1.0052005385       -1.7149402538
 H         -0.3966865802       -1.0096077202       -0.0480998070
 H         -0.3577265285        0.4892549432        0.9064839923
 H         -0.3790612465        0.5637817776       -0.8410466589
 H          3.0973296906        0.9823460819        5.1646764249
 H          2.8575542344        2.7391809391        4.9182329422
 H          4.4900041529        2.0906646619        5.2326720908
  42
    -8.881920 !GC
 C          0.0000000000        0.0000000000        0.0000000000
 C          1.5297771642        0.0000000000        0.0000000000
 C          2.0562575467        1.4463734439        0.0000000000
 C          1.7696889221        2.1483690820        1.3280232406
 N          2.2599057906        1.3961002037        2.4620841219
 C          1.8104310934        0.0205567479        2.5285815219
 C          2.0553164483       -0.7561519361        1.2314577138
 S          3.7910152555        1.7062718801        3.0144195385
 O          4.7099926117        0.6177226600        2.7211864284
 O          4.1867704929        3.0106792326        2.5261052899
 C          3.5576269178        1.8007995283        4.7875687971
 N          2.0231239473       -0.6750329945       -1.2034348950
 C          1.2506283187       -1.2191391870       -2.1896945878
 N          1.9129189518       -1.7629243823       -3.1620873151
 C          3.2323823358       -1.5857829037       -2.8317363963
 C          3.3250529989       -0.8974514929       -1.5940004538
 C          4.6136620073       -0.6297663016       -1.1037503094
 C          5.2483924488       -0.0117543469        0.0097044185
 C          6.5946777506       -0.1246994397       -0.1819795950
 N          6.8501256232       -0.7756819761       -1.3495905231
 C          5.6698781041       -1.0992477621       -1.9387502371
 N          5.5810887123       -1.7480782881       -3.1027232825
 C          4.3659154469       -1.9875654451       -3.5429373217
 H          3.1343962985        1.4415628781       -0.1655324680
 H          1.5934596658        2.0056628619       -0.8142857893
 H          2.2790736324        3.1114190736        1.3529109909
 H          0.6980367923        2.3075418359        1.4661814314
 H          2.3614984238       -0.4590289032        3.3366773045
 H          0.7473836740        0.0298301869        2.7809441248
 H          1.5647977856       -1.7284614480        1.2987266626
 H          3.1255853930       -0.9258215540        1.1253078171
 H          0.1817888491       -1.2057587185       -2.1749170643
 H          4.8032826995        0.4633420264        0.8613076718
 H          7.3876449046        0.2231958415        0.4492205921
 H          4.2778317970       -2.5111408517       -4.4825337840
 H          7.7555954186       -0.9926950935       -1.7310124815
 H         -0.3867206384        0.5521897544       -0.8521386126
 H         -0.3838494911       -1.0163779481       -0.0215497434
 H         -0.3622461509        0.4771622184        0.9034052913
 H          2.8772307224        2.6187572388        4.9835812034
 H          4.5236547767        1.9711953910        5.2375384769
 H          3.1279286652        0.8607843927        5.1060906276
  42
    -8.870189 !GC
 C          0.0000000000        0.0000000000        0.0000000000
 C          1.5294491334        0.0000000000        0.0000000000
 C          2.0555671901        1.4459207331        0.0000000000
 C          1.8026139502        2.1491881248        1.3367193317
 N          2.2478746465        1.3778984014        2.4787896101
 C          1.7686349176        0.0140311738        2.5291424951
 C          2.0574579322       -0.7531657350        1.2379436718
 S          3.7594457363        1.7162224726        3.0638893397
 O          4.1795689900        0.6088178145        3.8970131884
 O          4.6806436502        2.0943427888        2.0042857825
 C          3.4645450844        3.1419826093        4.1071171282
 N          2.0194155568       -0.6754034638       -1.2045267596
 C          1.2446716811       -1.2294692253       -2.1836183797
 N          1.9051945794       -1.7761623039       -3.1556047647
 C          3.2253341214       -1.5910860304       -2.8324030956
 C          3.3204633445       -0.8949585060       -1.5992625064
 C          4.6103383118       -0.6195060354       -1.1162086200
 C          5.2476250410        0.0071842710       -0.0088892527
 C          6.5934943469       -0.1014637513       -0.2059452612
 N          6.8464397575       -0.7589272328       -1.3704387326
 C          5.6648331569       -1.0898643909       -1.9529276130
 N          5.5733896622       -1.7446398714       -3.1133947063
 C          4.3571580368       -1.9916484827       -3.5466305086
 H          3.1271207350        1.4421445449       -0.1934301451
 H          1.5711872576        2.0103317803       -0.7981651207
 H          2.3521591665        3.0896576411        1.3513979422
 H          0.7384515185        2.3584872128        1.4699572365
 H          2.2826695073       -0.4629178726        3.3634152683
 H          0.6968293379        0.0402105398        2.7385591321
 H          1.5975933278       -1.7409986843        1.2916389904
 H          3.1356149187       -0.8893627501        1.1468609545
 H          0.1759377670       -1.2198059113       -2.1637897026
 H          4.8050401535        0.4883664167        0.8407796582
 H          7.3873944532        0.2541521013        0.4197783899
 H          4.2675001691       -2.5195594071       -4.4836638936
 H          7.7510674000       -0.9739720044       -1.7548482764
 H         -0.3971583214       -1.0104103297        0.0179575688
 H         -0.3538527943        0.5465243795        0.8750454807
 H         -0.3811839198        0.5095764728       -0.8739557649
 H          2.7571956186        2.8382335243        4.8652250543
 H          3.0638414567        3.9170793758        3.4702577815
 H          4.4009377438        3.4476925300        4.5533524659
  42
    -8.853049 !GC
 C          0.0000000000        0.0000000000        0.0000000000
 C          1.5298190512        0.0000000000        0.0000000000
 C          2.0573035355        1.4460532170        0.0000000000
 C          1.7721416939        2.1485182560        1.3285043611
 N          2.2540909341        1.3946324551        2.4653207356
 C          1.8026208272        0.0197897057        2.5287032731
 C          2.0553589934       -0.7551634762        1.2324778879
 S          3.7816830683        1.7072210110        3.0255963938
 O          4.6815757381        0.5878856523        2.7996924525
 O          4.2123424654        2.9781289837        2.4806368825
 C          3.5229823230        1.8936320926        4.7879142754
 N          2.0222837932       -0.6762709247       -1.2029724749
 C          1.2501214430       -1.2259314502       -2.1862546700
 N          1.9128515128       -1.7695786800       -3.1585127517
 C          3.2322719869       -1.5859660289       -2.8312210343
 C          3.3242485940       -0.8945537357       -1.5951783485
 C          4.6124739529       -0.6205659425       -1.1072239080
 C          5.2461935720        0.0022718377        0.0041440221
 C          6.5926656498       -0.1033829245       -0.1904695898
 N          6.8491680214       -0.7542279812       -1.3578589014
 C          5.6694269279       -1.0853200044       -1.9439460969
 N          5.5813838905       -1.7362041200       -3.1068386396
 C          4.3665005660       -1.9833512230       -3.5437699850
 H          3.1349875534        1.4405489425       -0.1675691066
 H          1.5933921182        2.0062598439       -0.8130286268
 H          2.2866599447        3.1088548871        1.3542393403
 H          0.7009009759        2.3139720924        1.4632138266
 H          2.3476249222       -0.4599542260        3.3407237029
 H          0.7378955105        0.0299286947        2.7738133365
 H          1.5701419172       -1.7301442970        1.2975503764
 H          3.1268560135       -0.9188882125        1.1287000963
 H          0.1811719439       -1.2169152464       -2.1689434851
 H          4.8005112277        0.4751396350        0.8566927325
 H          7.3847331009        0.2501645508        0.4386979495
 H          4.2795155569       -2.5084470585       -4.4826206168
 H          7.7550494987       -0.9655737239       -1.7413728209
 H         -0.4006383472       -1.0047561371       -0.0688714418
 H         -0.3971320450        0.5012425265        0.8776641516
 H         -0.3349493478        0.5441737883       -0.8803607805
 H          3.0983712568        0.9658983394        5.1442442540
 H          2.8515773316        2.7249113590        4.9482242261
 H          4.4901208905        2.0790440393        5.2354961954
  42
    -8.846492 !GC
 C          0.0000000000        0.0000000000        0.0000000000
 C          1.5298587934        0.0000000000        0.0000000000
 C          2.0531595009        1.4468061793        0.0000000000
 C          1.7814062123        2.1488059161        1.3321042128
 N          2.2486542060        1.3834095031        2.4672758540
 C          1.7794402005        0.0164790314        2.5301458680
 C          2.0523319596       -0.7531724081        1.2358987633
 S          3.7505246172        1.7138214532        3.0853011427
 O          4.3151148882        0.5042223446        3.6502858169
 O          4.5713872732        2.4138340457        2.1143898205
 C          3.3643019667        2.8413447267        4.4182128386
 N          2.0212085545       -0.6756935956       -1.2038119983
 C          1.2473400782       -1.2232137036       -2.1872472777
 N          1.9086117474       -1.7770171275       -3.1547507304
 C          3.2284010680       -1.6040173266       -2.8236633134
 C          3.3225220350       -0.9072245891       -1.5912727549
 C          4.6119123219       -0.6411921631       -1.1019586440
 C          5.2484041696       -0.0143141430        0.0056089987
 C          6.5942727485       -0.1366940721       -0.1827573357
 N          6.8479897392       -0.8020910859       -1.3425477592
 C          5.6668392139       -1.1242979063       -1.9307706965
 N          5.5761400537       -1.7828545538       -3.0891235798
 C          4.3603367017       -2.0181381881       -3.5299895855
 H          3.1283714786        1.4498036213       -0.1781446941
 H          1.5783561473        2.0070998949       -0.8066687448
 H          2.3134187494        3.0988443264        1.3484886430
 H          0.7132652357        2.3332022524        1.4671021702
 H          2.3173555295       -0.4629470827        3.3478547187
 H          0.7121128214        0.0336630345        2.7610492154
 H          1.5804125696       -1.7352425743        1.2934177768
 H          3.1282068871       -0.9051100207        1.1484528317
 H          0.1785453441       -1.2037796363       -2.1738272123
 H          4.8051108891        0.4758358395        0.8495870635
 H          7.3877565168        0.2147067670        0.4458429695
 H          4.2714774652       -2.5478427219       -4.4660319654
 H          7.7528863369       -1.0263011655       -1.7209334430
 H         -0.3857366694        0.5333172904       -0.8645540209
 H         -0.3851825170       -1.0160540131        0.0007506321
 H         -0.3621070245        0.4982747270        0.8917870903
 H          3.2545394954        3.8352695992        4.0145064345
 H          4.1883776047        2.7568617047        5.1108298811
 H          2.4467744461        2.5101465558        4.8878340252
  42
    -8.805691 !GC
 C          0.0000000000        0.0000000000        0.0000000000
 C          1.5295283655        0.0000000000        0.0000000000
 C          2.0555535002        1.4459056718        0.0000000000
 C          1.8007724159        2.1490471310        1.3364982651
 N          2.2443056236        1.3781553994        2.4795720442
 C          1.7656483417        0.0140098327        2.5290631054
 C          2.0574556717       -0.7526832723        1.2382878083
 S          3.7555078424        1.7159548182        3.0666321739
 O          4.1743918250        0.6080418953        3.8995779546
 O          4.6784329643        2.0938902891        2.0085512604
 C          3.4588178144        3.1408670814        4.1103385048
 N          2.0190492277       -0.6758056576       -1.2043957648
 C          1.2447912123       -1.2314352993       -2.1828909502
 N          1.9058777094       -1.7816518793       -3.1525830345
 C          3.2258726160       -1.5975285699       -2.8281672216
 C          3.3201733268       -0.8981839998       -1.5970209930
 C          4.6096226651       -0.6224068522       -1.1130887122
 C          5.2458489326        0.0076692358       -0.0071693391
 C          6.5918888189       -0.1029342127       -0.2019505250
 N          6.8458758298       -0.7655708578       -1.3632996921
 C          5.6647492152       -1.0969456932       -1.9466020935
 N          5.5740205734       -1.7557817326       -3.1048464467
 C          4.3581036606       -2.0021538005       -3.5393766872
 H          3.1272802874        1.4420684068       -0.1924895883
 H          1.5719660022        2.0102340087       -0.7987452907
 H          2.3501133659        3.0896383125        1.3519256954
 H          0.7363065648        2.3580450674        1.4679239059
 H          2.2781914053       -0.4627070328        3.3643707737
 H          0.6934406196        0.0396295916        2.7364582465
 H          1.5996786908       -1.7414870808        1.2912133433
 H          3.1360227060       -0.8865306746        1.1485902557
 H          0.1760290848       -1.2200881221       -2.1646547992
 H          4.8028653584        0.4923651630        0.8402419593
 H          7.3852580295        0.2542067478        0.4235514681
 H          4.2692099918       -2.5329668302       -4.4748321735
 H          7.7508134424       -0.9816177289       -1.7462253556
 H         -0.3659716522        0.5247841830        0.8820547490
 H         -0.3742916052        0.5044053255       -0.8877979398
 H         -0.3923008809       -1.0063118207        0.0053055640
 H          2.7603707247        2.8333577253        4.8754713663
 H          3.0467144499        3.9116721673        3.4751293308
 H          4.3971019474        3.4545802028        4.5472788674
  42
    -8.796010 !GC
 C          0.0000000000        0.0000000000        0.0000000000
 C          1.5298306585        0.0000000000        0.0000000000
 C          2.0550699847        1.4462055379        0.0000000000
 C          1.8071438546        2.1479666389        1.3384492368
 N          2.2563247565        1.3748017924        2.4782455028
 C          1.7690664351        0.0134128474        2.5273671833
 C          2.0551930239       -0.7533507854        1.2353063093
 S          3.7859679201        1.6914007458        3.0315022317
 O          4.1964649771        0.5869617981        3.8734776549
 O          4.6976123454        2.0314221010        1.9507647780
 C          3.5424786163        3.1385464992        4.0582213206
 N          2.0230099911       -0.6743096320       -1.2038149849
 C          1.2513249366       -1.2295119037       -2.1844496361
 N          1.9145832587       -1.7755701289       -3.1549126404
 C          3.2337706512       -1.5898278664       -2.8282564317
 C          3.3252200535       -0.8938444573       -1.5947174009
 C          4.6132056139       -0.6187410307       -1.1068749556
 C          5.2464755715        0.0063416185        0.0034364260
 C          6.5929772559       -0.1029252456       -0.1886249434
 N          6.8499887372       -0.7598331473       -1.3526046463
 C          5.6704462035       -1.0892742531       -1.9400162115
 N          5.5829205556       -1.7422225332       -3.1017924253
 C          4.3682267803       -1.9887599908       -3.5396189406
 H          3.1258999727        1.4428988563       -0.1974869732
 H          1.5671956245        2.0111256554       -0.7957442278
 H          2.3562338306        3.0886776986        1.3518602470
 H          0.7435342338        2.3567053884        1.4763793069
 H          2.2795298263       -0.4672627863        3.3616742905
 H          0.6973770719        0.0459404835        2.7359051731
 H          1.5919092359       -1.7396350290        1.2879115162
 H          3.1330743310       -0.8927727910        1.1441407371
 H          0.1823736483       -1.2218065902       -2.1676921484
 H          4.8002970894        0.4870057057        0.8512622540
 H          7.3850679374        0.2508275536        0.4404905509
 H          4.2813337087       -2.5138902515       -4.4784927686
 H          7.7561809443       -0.9747297881       -1.7337919610
 H         -0.4143728877       -1.0005277183        0.0053991788
 H         -0.3720178631        0.5512051361        0.8608520355
 H         -0.3466174995        0.5192546479       -0.8897362260
 H          2.8431150289        2.8886625023        4.8429570880
 H          3.1568524763        3.9180541093        3.4165586552
 H          4.5078149923        3.4079849152        4.4646059680
  42
    -8.787557 !GC
 C          0.0000000000        0.0000000000        0.0000000000
 C          1.5298127430        0.0000000000        0.0000000000
 C          2.0566374174        1.4461499192        0.0000000000
 C          1.7691835274        2.1490466616        1.3276716916
 N          2.2523425447        1.3961766418        2.4646415968
 C          1.8033887838        0.0204751624        2.5286633263
 C          2.0558179621       -0.7549459150        1.2324658758
 S          3.7789636225        1.7120118741        3.0255767957
 O          4.6855822607        0.6003240750        2.7882754889
 O          4.2006883552        2.9904409323        2.4916328419
 C          3.5222020416        1.8810863046        4.7900387131
 N          2.0221331429       -0.6756829810       -1.2033944399
 C          1.2494684495       -1.2226306864       -2.1878333345
 N          1.9115987401       -1.7700205078       -3.1583676800
 C          3.2311673997       -1.5920819928       -2.8285790065
 C          3.3238758163       -0.8997492312       -1.5932864547
 C          4.6125246426       -0.6308982783       -1.1035641074
 C          5.2470603815       -0.0082968789        0.0074151342
 C          6.5933618540       -0.1221639380       -0.1835735527
 N          6.8490501812       -0.7787071807       -1.3479478108
 C          5.6689076285       -1.1041833427       -1.9362669546
 N          5.5799287456       -1.7569946692       -3.0980240979
 C          4.3647113075       -1.9969926808       -3.5379282920
 H          3.1346474035        1.4406936334       -0.1656610068
 H          1.5941302935        2.0055256068       -0.8144417469
 H          2.2820684174        3.1102872411        1.3535391513
 H          0.6975688374        2.3126058933        1.4617681179
 H          2.3502806165       -0.4581056581        3.3401022194
 H          0.7389654091        0.0288383104        2.7750254607
 H          1.5704254132       -1.7298733822        1.2980109861
 H          3.1273064074       -0.9188728553        1.1287678720
 H          0.1805562716       -1.2084703626       -2.1731089091
 H          4.8018490153        0.4706002964        0.8567498256
 H          7.3860365481        0.2290133487        0.4462742431
 H          4.2769666736       -2.5239982046       -4.4756929874
 H          7.7544629347       -0.9969413934       -1.7286917138
 H         -0.3836690779        0.5523069424       -0.8536763843
 H         -0.3855431659       -1.0157363337       -0.0226882057
 H         -0.3642934082        0.4783763470        0.9018540148
 H          4.4861389681        2.0673419806        5.2446472603
 H          3.0889891196        0.9637115827        5.1617266533
 H          2.8569112020        2.7217214058        4.9247808941
  42
    -8.780599 !GC
 C          0.0000000000        0.0000000000        0.0000000000
 C          1.5295886727        0.0000000000        0.0000000000
 C          2.0553007318        1.4459764386        0.0000000000
 C          1.7978134693        2.1488905855        1.3357825698
 N          2.2458212431        1.3797979574        2.4782876535
 C          1.7700628574        0.0144980717        2.5291295782
 C          2.0572393582       -0.7532946848        1.2375932469
 S          3.7591875067        1.7162937970        3.0603776034
 O          4.2002996800        0.5899978681        3.8573366470
 O          4.6650355011        2.1336905700        2.0026375033
 C          3.4613528378        3.1085342007        4.1473397366
 N          2.0198856229       -0.6745232388       -1.2048524626
 C          1.2453852590       -1.2249239646       -2.1861531960
 N          1.9060707039       -1.7753555362       -3.1559282979
 C          3.2261206620       -1.5965851054       -2.8288786531
 C          3.3209121289       -0.9000642581       -1.5961874361
 C          4.6106703142       -0.6295333392       -1.1101756312
 C          5.2474654420       -0.0019791442       -0.0031710523
 C          6.5933425171       -0.1181518219       -0.1955446228
 N          6.8467022998       -0.7809220774       -1.3569369574
 C          5.6653513695       -1.1073662734       -1.9423690390
 N          5.5740806924       -1.7642522539       -3.1016280579
 C          4.3579215276       -2.0043492913       -3.5389852228
 H          3.1275798433        1.4416407156       -0.1898879132
 H          1.5736551030        2.0095891732       -0.8004288162
 H          2.3427431945        3.0919750880        1.3513751535
 H          0.7325341522        2.3530148124        1.4680895371
 H          2.2863654416       -0.4615493841        3.3625146775
 H          0.6986209687        0.0382789501        2.7407000842
 H          1.5959670156       -1.7405493132        1.2919834787
 H          3.1351053916       -0.8907760084        1.1462053668
 H          0.1766347997       -1.2100639669       -2.1699106983
 H          4.8042670361        0.4844203627        0.8430959661
 H          7.3872800140        0.2355824209        0.4313051497
 H          4.2685057324       -2.5338104760       -4.4751906733
 H          7.7514191805       -1.0012361333       -1.7380969789
 H         -0.3858682994        0.5213798021       -0.8718943273
 H         -0.3856921102       -1.0158733461        0.0153492460
 H         -0.3617092764        0.5107839471        0.8852101442
 H          3.0906392090        3.9317078508        3.5535869902
 H          4.4014476942        3.3625541242        4.6188906571
 H          2.7339695083        2.7806637544        4.8758225783
  42
    -8.777314 !GC
 C          0.0000000000        0.0000000000        0.0000000000
 C          1.5297733793        0.0000000000        0.0000000000
 C          2.0547315109        1.4463038744        0.0000000000
 C          1.8052010429        2.1479506063        1.3382361592
 N          2.2546364869        1.3748807528        2.4778637346
 C          1.7687314627        0.0131649915        2.5273989323
 C          2.0549594744       -0.7535445690        1.2353063318
 S          3.7823977217        1.6943555024        3.0345838821
 O          4.2029874854        0.5816218403        3.8606251277
 O          4.6891190166        2.0570832711        1.9572276232
 C          3.5288304643        3.1249673611        4.0816853278
 N          2.0226192173       -0.6745662758       -1.2038867147
 C          1.2503250310       -1.2286051402       -2.1846955954
 N          1.9128794763       -1.7725161508       -3.1568807635
 C          3.2323418611       -1.5863590963       -2.8312667767
 C          3.3245430805       -0.8922541839       -1.5968375222
 C          4.6128872280       -0.6164676110       -1.1103425932
 C          5.2468887444        0.0075412359        0.0001517377
 C          6.5932854540       -0.0989535881       -0.1943201477
 N          6.8495370551       -0.7532144892       -1.3599193557
 C          5.6696051678       -1.0837770274       -1.9460073112
 N          5.5813132643       -1.7361820480       -3.1080979997
 C          4.3662281796       -1.9839000844       -3.5442722501
 H          3.1258232657        1.4434560745       -0.1962081757
 H          1.5676093120        2.0108883869       -0.7964432489
 H          2.3539480571        3.0888807272        1.3521915597
 H          0.7413842096        2.3559654480        1.4756789794
 H          2.2801770966       -0.4669878403        3.3613635971
 H          0.6971485844        0.0447511049        2.7365908286
 H          1.5915390999       -1.7397558283        1.2879407263
 H          3.1328282001       -0.8931079150        1.1444169873
 H          0.1813919854       -1.2216858735       -2.1663460740
 H          4.8014022709        0.4855759347        0.8498738146
 H          7.3857546516        0.2549751901        0.4342224304
 H          4.2787342050       -2.5093147118       -4.4829581343
 H          7.7554290155       -0.9661559001       -1.7429437990
 H         -0.4014494946        0.5163093637        0.8643512427
 H         -0.3567858164        0.4965144716       -0.9030774635
 H         -0.3748685070       -1.0162274343       -0.0049510954
 H          2.8415150213        2.8541742426        4.8702139941
 H          3.1254316179        3.9073086237        3.4545132186
 H          4.4943677318        3.4028459493        4.4818971679
  42
    -8.712852 !GC
 C          0.0000000000        0.0000000000        0.0000000000
 C          1.5298261165        0.0000000000        0.0000000000
 C          2.0548588753        1.4463460434        0.0000000000
 C          1.8054376231        2.1474791493        1.3383862400
 N          2.2559645361        1.3745524464        2.4776815025
 C          1.7706207922        0.0125589351        2.5271096722
 C          2.0556691834       -0.7540509890        1.2347566425
 S          3.7838475355        1.6952396952        3.0332836279
 O          4.2053948621        0.5837105639        3.8602641728
 O          4.6899646032        2.0574242189        1.9554764278
 C          3.5294690898        3.1269546277        4.0785413628
 N          2.0224974633       -0.6738707523       -1.2042662036
 C          1.2502860815       -1.2264436614       -2.1860184733
 N          1.9130588319       -1.7728210767       -3.1565998571
 C          3.2323862574       -1.5901119846       -2.8289727157
 C          3.3245005214       -0.8952608810       -1.5948454455
 C          4.6127859176       -0.6229418773       -1.1061968105
 C          5.2468234203        0.0008891684        0.0043859195
 C          6.5931953923       -0.1115679210       -0.1867878840
 N          6.8493927747       -0.7693966984       -1.3504411022
 C          5.6694551577       -1.0956925379       -1.9387755158
 N          5.5812292253       -1.7478976158       -3.1009025352
 C          4.3663360880       -1.9912243925       -3.5398206822
 H          3.1259224210        1.4436913327       -0.1964599392
 H          1.5676386230        2.0115412346       -0.7959347663
 H          2.3536893558        3.0886454031        1.3521212881
 H          0.7415620948        2.3549469385        1.4763910214
 H          2.2831487002       -0.4677834406        3.3602951176
 H          0.6991612736        0.0435168179        2.7372413203
 H          1.5920633748       -1.7402019601        1.2877545769
 H          3.1333975717       -0.8937527164        1.1426658937
 H          0.1813743994       -1.2165361245       -2.1698668331
 H          4.8013016034        0.4831967445        0.8516356500
 H          7.3857141948        0.2404783020        0.4427443060
 H          4.2789187413       -2.5149384161       -4.4794221177
 H          7.7552525378       -0.9869156660       -1.7309359150
 H         -0.3865655954        0.5097266874       -0.8783980882
 H         -0.3851321794       -1.0158094102        0.0289523421
 H         -0.3619302283        0.5219990088        0.8785729880
 H          3.1270517085        3.9182953297        3.4603234518
 H          4.4983628053        3.3826734524        4.4783265308
 H          2.8292467191        2.8666153402        4.8601119231
  42
    -8.665657 !GC
 C          0.0000000000        0.0000000000        0.0000000000
 C          1.5295122163        0.0000000000        0.0000000000
 C          2.0554464420        1.4455876664        0.0000000000
 C          1.8009475878        2.1479524654        1.3354064728
 N          2.2802189400        1.3866746249        2.4717606397
 C          1.7824853802        0.0275434612        2.5509990616
 C          2.0289520198       -0.7759228173        1.2734040683
 S          3.8696707248        1.6173253494        2.9015592839
 O          4.4096832997        0.3823057232        3.4366095136
 O          4.6020524451        2.1936308261        1.7885288957
 C          3.7719382820        2.8249065131        4.2234708626
 N          2.0221910119       -0.6766210176       -1.2027989106
 C          1.2496533068       -1.2260729006       -2.1861774934
 N          1.9122628741       -1.7781584507       -3.1536740299
 C          3.2316529909       -1.6018086098       -2.8225831425
 C          3.3241644548       -0.9047149370       -1.5899204795
 C          4.6126643817       -0.6343717623       -1.1006700273
 C          5.2469604660       -0.0067673738        0.0077543524
 C          6.5932074108       -0.1219159360       -0.1821867894
 N          6.8491822412       -0.7840937176       -1.3433434860
 C          5.6691860645       -1.1120059653       -1.9307320671
 N          5.5803718662       -1.7696852013       -3.0898106010
 C          4.3652303296       -2.0103282825       -3.5296293561
 H          3.1287887976        1.4454656738       -0.1890168917
 H          1.5741349163        2.0089822987       -0.8007964896
 H          2.3314721190        3.0993383348        1.3504851569
 H          0.7324184738        2.3232441695        1.4771859033
 H          2.3046439089       -0.4452855527        3.3825093800
 H          0.7152155636        0.0773418266        2.7807349092
 H          1.5328083279       -1.7442469610        1.3542568789
 H          3.1000885009       -0.9548522912        1.1812034891
 H          0.1807152833       -1.2091753798       -2.1727760998
 H          4.8017902418        0.4783053455        0.8537263290
 H          7.3856446542        0.2324817277        0.4460076690
 H          4.2772598098       -2.5396470830       -4.4660548327
 H          7.7549569921       -1.0058281161       -1.7215540744
 H         -0.3844276083        0.5280304869       -0.8684716358
 H         -0.3855554382       -1.0159666989        0.0072345776
 H         -0.3628957877        0.5038394535        0.8885514614
 H          3.7024009249        3.7867663579        3.7318573202
 H          4.6800810121        2.7329575174        4.7994224920
 H          2.8865686357        2.6489031261        4.8196970939
  42
    -8.656295 !GC
 C          0.0000000000        0.0000000000        0.0000000000
 C          1.5298508450        0.0000000000        0.0000000000
 C          2.0565004452        1.4462911598        0.0000000000
 C          1.7684462228        2.1482433897        1.3277634035
 N          2.2588507388        1.3967480045        2.4623228169
 C          1.8099739266        0.0209972523        2.5286802084
 C          2.0552295346       -0.7558086307        1.2316952927
 S          3.7911238473        1.7070099127        3.0124170458
 O          4.7127395126        0.6235187599        2.7090077357
 O          4.1813343460        3.0157225510        2.5315200841
 C          3.5628382478        1.7892278200        4.7867552798
 N          2.0239717542       -0.6753566924       -1.2029752295
 C          1.2526318242       -1.2206761900       -2.1894714131
 N          1.9161438572       -1.7635429690       -3.1615715148
 C          3.2352595965       -1.5834401273       -2.8312553492
 C          3.3263345603       -0.8953474823       -1.5932452838
 C          4.6141700268       -0.6253417169       -1.1022688725
 C          5.2470501807       -0.0070259056        0.0120635948
 C          6.5936475985       -0.1163529519       -0.1794502101
 N          6.8509868715       -0.7660616025       -1.3473656033
 C          5.6717076808       -1.0918309013       -1.9372472908
 N          5.5845745586       -1.7401259077       -3.1016493123
 C          4.3700415910       -1.9822290432       -3.5422685757
 H          3.1348021324        1.4413729139       -0.1647321087
 H          1.5943760846        2.0053976758       -0.8148018595
 H          2.2768264675        3.1118003993        1.3530425973
 H          0.6965154192        2.3063034533        1.4652509875
 H          2.3606771453       -0.4582749946        3.3371573329
 H          0.7468538973        0.0299155143        2.7807134748
 H          1.5648345044       -1.7281444503        1.2990800971
 H          3.1255329513       -0.9252845067        1.1259154080
 H          0.1837553855       -1.2095887745       -2.1744852496
 H          4.8004801873        0.4656600853        0.8642168133
 H          7.3855627076        0.2329667923        0.4522658448
 H          4.2836430715       -2.5051008708       -4.4824183506
 H          7.7571645216       -0.9802611633       -1.7287388585
 H         -0.4011804306       -1.0037958140       -0.0772941981
 H         -0.3970599655        0.4943721856        0.8814232025
 H         -0.3344621521        0.5513136586       -0.8760094048
 H          3.1675868356        0.8318209923        5.0937699080
 H          2.8660484306        2.5928057173        4.9785101878
 H          4.5180688566        1.9869085586        5.2539354728
  42
    -8.622642 !GC
 C          0.0000000000        0.0000000000        0.0000000000
 C          1.5298240979        0.0000000000        0.0000000000
 C          2.0566451397        1.4461999848        0.0000000000
 C          1.7696960642        2.1481393357        1.3280460997
 N          2.2602956743        1.3963385851        2.4623284810
 C          1.8108098019        0.0208116341        2.5288773516
 C          2.0552341099       -0.7558595671        1.2317114745
 S          3.7930532047        1.7055525736        3.0115781647
 O          4.7137552369        0.6214026974        2.7077290572
 O          4.1839120902        3.0139403977        2.5303954122
 C          3.5656394134        1.7878739952        4.7860031750
 N          2.0238649257       -0.6754598048       -1.2029425430
 C          1.2524905281       -1.2217506682       -2.1888626448
 N          1.9159769295       -1.7617814871       -3.1625383758
 C          3.2350607053       -1.5791763381       -2.8337569899
 C          3.3262217724       -0.8921463651       -1.5950801472
 C          4.6140115426       -0.6196392412       -1.1054716796
 C          5.2468548460       -0.0017184490        0.0091049943
 C          6.5934399460       -0.1073543168       -0.1844802733
 N          6.8507509895       -0.7535428697       -1.3543605023
 C          5.6715081588       -1.0814004325       -1.9430992874
 N          5.5843601848       -1.7285399497       -3.1081280278
 C          4.3698705947       -1.9736792948       -3.5471113084
 H          3.1348040951        1.4408524798       -0.1657068912
 H          1.5940204909        2.0054490148       -0.8144068867
 H          2.2786074374        3.1114912050        1.3530001344
 H          0.6978912034        2.3065759495        1.4662347003
 H          2.3614298182       -0.4588795781        3.3372231788
 H          0.7477499284        0.0302529917        2.7809757433
 H          1.5648409651       -1.7281475317        1.2993994350
 H          3.1254184301       -0.9255742931        1.1255621128
 H          0.1836146982       -1.2135378596       -2.1722340037
 H          4.8002942306        0.4675079308        0.8631840702
 H          7.3853586075        0.2423701033        0.4470013894
 H          4.2834850534       -2.4953208853       -4.4879891347
 H          7.7568816976       -0.9647187659       -1.7373729187
 H         -0.3871797219        0.5576076967       -0.8483612023
 H         -0.3835943095       -1.0163652640       -0.0282274879
 H         -0.3624935950        0.4710667494        0.9065352950
 H          4.5257187312        1.9822816853        5.2417942433
 H          3.1550195210        0.8344879214        5.0814684858
 H          2.8760260777        2.5952120686        4.9998057867
  42
    -8.599523 !GC
 C          0.0000000000        0.0000000000        0.0000000000
 C          1.5297882668        0.0000000000        0.0000000000
 C          2.0569565752        1.4461529336        0.0000000000
 C          1.7698125282        2.1479873915        1.3279977946
 N          2.2605329843        1.3966767893        2.4626530069
 C          1.8111071206        0.0209330084        2.5284718055
 C          2.0554818846       -0.7560119639        1.2314435673
 S          3.7953330915        1.7047199418        3.0068932460
 O          4.7288430455        0.6457691443        2.6558903202
 O          4.1617156356        3.0339419159        2.5655312328
 C          3.5882647595        1.7246698930        4.7857019970
 N          2.0232476214       -0.6756962740       -1.2030142861
 C          1.2514788062       -1.2225087977       -2.1882628989
 N          1.9145427852       -1.7638373787       -3.1615728538
 C          3.2338388102       -1.5810772367       -2.8333549152
 C          3.3254234603       -0.8936446600       -1.5949863310
 C          4.6133724976       -0.6216586942       -1.1055309202
 C          5.2466395419       -0.0034020919        0.0086081385
 C          6.5931510854       -0.1090717986       -0.1853809578
 N          6.8500957913       -0.7554624969       -1.3552044899
 C          5.6706097465       -1.0841345881       -1.9431451544
 N          5.5830345877       -1.7311819097       -3.1082318303
 C          4.3683121153       -1.9763689823       -3.5467259241
 H          3.1351672877        1.4402380662       -0.1652772049
 H          1.5947846506        2.0057269067       -0.8144728369
 H          2.2780704645        3.1116423669        1.3537596623
 H          0.6979803673        2.3061572078        1.4660348917
 H          2.3608031698       -0.4594634765        3.3367964315
 H          0.7479760089        0.0308316256        2.7805322123
 H          1.5645796751       -1.7279610058        1.2992514361
 H          3.1255213215       -0.9260070167        1.1244588626
 H          0.1826409796       -1.2134052769       -2.1714889642
 H          4.8004735539        0.4662782098        0.8626594714
 H          7.3852539273        0.2410514308        0.4456404081
 H          4.2814843040       -2.4988270305       -4.4870427081
 H          7.7561287694       -0.9659538769       -1.7388886136
 H         -0.4143389240        0.4483829183        0.8943176166
 H         -0.3691609977        0.5158657718       -0.8858064838
 H         -0.3491896641       -1.0257146322       -0.0559592638
 H          3.2181105206        0.7493142072        5.0661959371
 H          2.8757376274        2.5056033526        5.0102330216
 H          4.5433188259        1.9300851770        5.2494233174
  42
    -8.057004 !GC
 C          0.0000000000        0.0000000000        0.0000000000
 C          1.5294762591        0.0000000000        0.0000000000
 C          2.0521173805        1.4465868743        0.0000000000
 C          1.8135633119        2.1487035145        1.3406661696
 N          2.2426022772        1.3666073893        2.4813417352
 C          1.7443352610        0.0115337693        2.5309446864
 C          2.0546189840       -0.7518513662        1.2436845344
 S          3.7268078434        1.7168208724        3.1267236812
 O          3.7255110793        1.1412168374        4.4513650324
 O          4.8563653481        1.3777967657        2.2711981125
 C          3.6510755138        3.4964057927        3.2863155740
 N          2.0171307158       -0.6745415320       -1.2057975154
 C          1.2401632212       -1.2312235223       -2.1817886646
 N          1.8988092898       -1.7903822922       -3.1479539328
 C          3.2195310223       -1.6128476412       -2.8232772809
 C          3.3171684696       -0.9070479027       -1.5966476802
 C          4.6084908792       -0.6359403551       -1.1149211024
 C          5.2491183279        0.0001393532       -0.0148836305
 C          6.5943063238       -0.1218733616       -0.2082237034
 N          6.8438409941       -0.7966568617       -1.3635028504
 C          5.6604934840       -1.1245562399       -1.9442562603
 N          5.5656716158       -1.7907284726       -3.0978773836
 C          4.3482287185       -2.0297065566       -3.5322424665
 H          3.1208411739        1.4505509049       -0.2048496414
 H          1.5568193025        2.0120214771       -0.7907435725
 H          2.3809899671        3.0776329609        1.3463799765
 H          0.7535583915        2.3779922659        1.4742742051
 H          2.2487314462       -0.4655960238        3.3716842107
 H          0.6701030453        0.0459310674        2.7239930981
 H          1.6102103258       -1.7470510870        1.2912339576
 H          3.1367883414       -0.8742586945        1.1695330330
 H          0.1714883275       -1.2131506012       -2.1642947539
 H          4.8094508734        0.4982895870        0.8265248114
 H          7.3899482647        0.2355484476        0.4142455528
 H          4.2562424584       -2.5664790755       -4.4639480276
 H          7.7474579883       -1.0221326622       -1.7442714249
 H         -0.3882173999        0.4873084540       -0.8901287420
 H         -0.3853920567       -1.0143529248        0.0560504467
 H         -0.3590601184        0.5446240640        0.8658042793
 H          2.6451832383        3.7658131705        3.5728991392
 H          3.9195051860        3.8818825156        2.3138423471
 H          4.3653436454        3.8135506094        4.0336480787
  42
    -7.961141 !GC
 C          0.0000000000        0.0000000000        0.0000000000
 C          1.5296938949        0.0000000000        0.0000000000
 C          2.0587062546        1.4458329892        0.0000000000
 C          1.7774735571        2.1481949100        1.3294289662
 N          2.2663464090        1.3954286036        2.4647364542
 C          1.8119115680        0.0208520882        2.5275849169
 C          2.0566439524       -0.7564275057        1.2311494747
 S          3.8121457315        1.7004966471        2.9801340379
 O          4.7652573135        0.7081665296        2.5064514341
 O          4.1193958735        3.0711863537        2.6292451937
 C          3.6803902370        1.5699434927        4.7640757018
 N          2.0231255388       -0.6758732716       -1.2029592655
 C          1.2516361476       -1.2261744936       -2.1863254689
 N          1.9148270184       -1.7601971776       -3.1635894623
 C          3.2340027920       -1.5682380875       -2.8400658343
 C          3.3253850269       -0.8832458709       -1.6000606331
 C          4.6132780439       -0.6039190387       -1.1141557146
 C          5.2462692379        0.0128069359        0.0011032313
 C          6.5927954595       -0.0801311877       -0.1995670066
 N          6.8499749519       -0.7170898575       -1.3744801248
 C          5.6707111181       -1.0528487608       -1.9588263709
 N          5.5835008957       -1.6950018604       -3.1266831052
 C          4.3690067020       -1.9508089602       -3.5596147087
 H          3.1359737858        1.4370342933       -0.1700196370
 H          1.5940740130        2.0070361129       -0.8119588644
 H          2.2888367290        3.1106092634        1.3564222896
 H          0.7063350052        2.3108832237        1.4688288045
 H          2.3506068243       -0.4599179291        3.3425747458
 H          0.7470365618        0.0371992509        2.7724572232
 H          1.5660668272       -1.7284825980        1.2986789361
 H          3.1264195233       -0.9244057267        1.1194937468
 H          0.1827242073       -1.2252257009       -2.1653525904
 H          4.7999460633        0.4720502221        0.8607598102
 H          7.3846820330        0.2727913554        0.4302028508
 H          4.2824807410       -2.4696479734       -4.5020037364
 H          7.7560563184       -0.9183441667       -1.7628617475
 H         -0.4002398458       -1.0049334735       -0.0695547570
 H         -0.3972721313        0.5008735063        0.8779412683
 H         -0.3352166033        0.5446620587       -0.8800234588
 H          3.7463282901        0.5158962397        4.9954219553
 H          2.7305484341        1.9818743945        5.0751732465
 H          4.5114793567        2.1140804130        5.1925713704
  42
    -7.872040 !GC
 C          0.0000000000        0.0000000000        0.0000000000
 C          1.5297795614        0.0000000000        0.0000000000
 C          2.0533981976        1.4467652115        0.0000000000
 C          1.7854143713        2.1472917963        1.3337441016
 N          2.2565782640        1.3808710971        2.4666829834
 C          1.7841767885        0.0150217764        2.5292262102
 C          2.0533707670       -0.7547875250        1.2344106030
 S          3.7637217414        1.7068306662        3.0734651937
 O          4.3509563170        0.4873955015        3.5935202858
 O          4.5610029099        2.4431122153        2.1097080150
 C          3.3898121617        2.7910005271        4.4455184667
 N          2.0208021532       -0.6752753483       -1.2041024381
 C          1.2470241021       -1.2235547101       -2.1870967498
 N          1.9084191755       -1.7744355238       -3.1561965563
 C          3.2282715461       -1.5984877299       -2.8266667573
 C          3.3221203358       -0.9036222864       -1.5930412921
 C          4.6112503807       -0.6360002728       -1.1041163262
 C          5.2470545277       -0.0109915250        0.0048626043
 C          6.5930441070       -0.1285442181       -0.1854783369
 N          6.8474689046       -0.7889894924       -1.3479533830
 C          5.6666254100       -1.1139483611       -1.9353849464
 N          5.5763142641       -1.7692202979       -3.0956445002
 C          4.3605669695       -2.0072807609       -3.5353496776
 H          3.1281681141        1.4492014884       -0.1806488405
 H          1.5770946809        2.0082020856       -0.8050753228
 H          2.3166029141        3.0977993110        1.3501256315
 H          0.7175967168        2.3306407605        1.4723972557
 H          2.3208403015       -0.4670338459        3.3460009497
 H          0.7170607841        0.0353224514        2.7611876949
 H          1.5798166197       -1.7359570087        1.2922177163
 H          3.1287655911       -0.9084084767        1.1444912003
 H          0.1781875717       -1.2073010193       -2.1718905206
 H          4.8031715426        0.4738659038        0.8516063856
 H          7.3862844356        0.2226791188        0.4435162504
 H          4.2719936169       -2.5355077506       -4.4722572174
 H          7.7526616823       -1.0086785950       -1.7283149292
 H         -0.3985905093       -1.0097185927       -0.0158658747
 H         -0.3571319967        0.5190349832        0.8899010897
 H         -0.3771834599        0.5370283492       -0.8591788255
 H          4.2228492509        2.7423820415        5.1287928001
 H          2.4755910803        2.4141833418        4.8833085012
 H          3.2322398139        3.7935116989        4.0727319101
  42
    -7.816226 !GC
 C          0.0000000000        0.0000000000        0.0000000000
 C          1.5296802690        0.0000000000        0.0000000000
 C          2.0550297916        1.4465632363        0.0000000000
 C          1.7674665908        2.1572111881        1.3246764270
 N          2.2187752456        1.3883139365        2.4615612229
 C          1.7831668624        0.0097019264        2.4954726914
 C          2.0590079340       -0.7268431686        1.1827879882
 S          3.6609700456        1.7531713690        3.1856515780
 O          4.2592875341        0.5547894029        3.7422918532
 O          4.4988266434        2.5320286259        2.2924049669
 C          3.1346757436        2.7978090709        4.5373520872
 N          2.0206459518       -0.6752238990       -1.2043835430
 C          1.2458450309       -1.2175124094       -2.1900315287
 N          1.9060215918       -1.7661803707       -3.1609788790
 C          3.2261930797       -1.5936071452       -2.8309033960
 C          3.3214967994       -0.9028610925       -1.5948702728
 C          4.6110755337       -0.6384945722       -1.1054511922
 C          5.2475825344       -0.0186926991        0.0059713305
 C          6.5934156161       -0.1347839853       -0.1863206477
 N          6.8468699578       -0.7912183111       -1.3513000297
 C          5.6656883274       -1.1128461990       -1.9395783632
 N          5.5743004911       -1.7644876005       -3.1016776373
 C          4.3581214058       -2.0016739411       -3.5406034818
 H          3.1319735731        1.4450484396       -0.1666939219
 H          1.5897017107        2.0031887049       -0.8147081260
 H          2.2956408172        3.1091538778        1.3472184909
 H          0.6976436381        2.3406628257        1.4451632629
 H          2.3369586373       -0.4758512970        3.2996618486
 H          0.7165771790       -0.0035852140        2.7324609424
 H          1.5947699989       -1.7133555439        1.2219346596
 H          3.1347956953       -0.8674080947        1.0801334230
 H          0.1770845716       -1.1975276117       -2.1755283374
 H          4.8039364171        0.4606817658        0.8559958144
 H          7.3874211879        0.2130560568        0.4434605571
 H          4.2690046828       -2.5274461699       -4.4788493411
 H          7.7516791025       -1.0096435715       -1.7331218860
 H         -0.3924921746       -1.0134370355       -0.0099126501
 H         -0.3667628602        0.5057872872        0.8925618060
 H         -0.3739644526        0.5201903954       -0.8708584905
 H          3.9006433427        2.8067907301        5.2993707925
 H          2.1959086528        2.4062719367        4.8974242792
 H          3.0191929641        3.7893799230        4.1174053891
  42
    -7.805554 !GC
 C          0.0000000000        0.0000000000        0.0000000000
 C          1.5298022712        0.0000000000        0.0000000000
 C          2.0530876062        1.4468262290        0.0000000000
 C          1.7850347344        2.1473110803        1.3337156699
 N          2.2568320092        1.3804430164        2.4659875153
 C          1.7842614321        0.0148537479        2.5293951254
 C          2.0529939880       -0.7549025498        1.2344095255
 S          3.7623825705        1.7075052344        3.0761763937
 O          4.3248293161        0.4974039014        3.6427715912
 O          4.5815805396        2.4017672251        2.0994689201
 C          3.3869663072        2.8397098528        4.4083377616
 N          2.0214780753       -0.6751109628       -1.2039384935
 C          1.2481689902       -1.2213513102       -2.1885275920
 N          1.9100405203       -1.7708768655       -3.1580417629
 C          3.2297427127       -1.5961219847       -2.8271671214
 C          3.3230350150       -0.9029940361       -1.5923903998
 C          4.6119093296       -0.6369753807       -1.1018630410
 C          5.2469496712       -0.0143845305        0.0089205496
 C          6.5930689602       -0.1327521845       -0.1800983750
 N          6.8482767460       -0.7923391827       -1.3429422086
 C          5.6678062072       -1.1148663494       -1.9324569015
 N          5.5782006448       -1.7682872705       -3.0938537252
 C          4.3627021244       -2.0047941145       -3.5350861900
 H          3.1278781223        1.4500654686       -0.1804587652
 H          1.5766763392        2.0080347743       -0.8051475105
 H          2.3160797661        3.0978645157        1.3494737399
 H          0.7171633183        2.3300894404        1.4725688538
 H          2.3223917755       -0.4665991521        3.3457224195
 H          0.7173625231        0.0348737454        2.7623608215
 H          1.5790890541       -1.7359887532        1.2920314514
 H          3.1284190489       -0.9090113634        1.1449320813
 H          0.1793023532       -1.2046221613       -2.1742614685
 H          4.8023493107        0.4697974276        0.8556725598
 H          7.3859144914        0.2167505075        0.4503828954
 H          4.2747174053       -2.5314933165       -4.4729181566
 H          7.7537621894       -1.0129684472       -1.7222002064
 H         -0.3710646208        0.4963512790        0.8959337447
 H         -0.3716111675        0.5309711422       -0.8731722337
 H         -0.3902954065       -1.0068236281       -0.0282320931
 H          4.2040033094        2.7905126491        5.1108590901
 H          2.4539296977        2.5001683233        4.8370154311
 H          3.2648307827        3.8343367608        4.0017318128
  42
    -7.799771 !GC
 C          0.0000000000        0.0000000000        0.0000000000
 C          1.5296875866        0.0000000000        0.0000000000
 C          2.0580401052        1.4459303851        0.0000000000
 C          1.7745144701        2.1487281484        1.3286013067
 N          2.2645957134        1.3969877405        2.4640614455
 C          1.8126760484        0.0215469750        2.5275482965
 C          2.0571001434       -0.7562094556        1.2311490210
 S          3.8094606167        1.7053395030        2.9801255921
 O          4.7679591222        0.7230378345        2.4961335381
 O          4.1078903607        3.0809609089        2.6416071509
 C          3.6812964862        1.5578103776        4.7631175277
 N          2.0229749283       -0.6752853673       -1.2033811213
 C          1.2509814479       -1.2228740524       -2.1879045060
 N          1.9136269251       -1.7606433334       -3.1634516672
 C          3.2329955435       -1.5743612473       -2.8374359387
 C          3.3250792195       -0.8884320998       -1.5981415929
 C          4.6134056118       -0.6142249445       -1.1104406353
 C          5.2471279992        0.0022899283        0.0044645121
 C          6.5935775708       -0.0988644520       -0.1925782356
 N          6.8500899991       -0.7415506248       -1.3645154075
 C          5.6704072683       -1.0717013226       -1.9511058565
 N          5.5823517988       -1.7157997272       -3.1178439654
 C          4.3674610852       -1.9644565647       -3.5537447668
 H          3.1356382829        1.4371775429       -0.1681109987
 H          1.5948088490        2.0063014814       -0.8133749722
 H          2.2842398259        3.1120414062        1.3557250142
 H          0.7030049025        2.3095246643        1.4673909218
 H          2.3532655078       -0.4580740798        3.3419621733
 H          0.7480925173        0.0361170158        2.7736736444
 H          1.5663501621       -1.7282096488        1.2991588212
 H          3.1268670932       -0.9243906310        1.1195760093
 H          0.1820592883       -1.2167760479       -2.1695116788
 H          4.8011381523        0.4675901865        0.8609433517
 H          7.3860409530        0.2517037356        0.4378985065
 H          4.2802475791       -2.4852191511       -4.4950640048
 H          7.7557898604       -0.9496994400       -1.7501343925
 H         -0.3832655363        0.5529923565       -0.8534913290
 H         -0.3856826374       -1.0157852782       -0.0231496792
 H         -0.3645587631        0.4778421662        0.9020945464
 H          4.5101370686        2.1119722976        5.1842972826
 H          3.7419519294        0.5127328835        5.0327370285
 H          2.7361814527        1.9985083878        5.0465177110
  42
    -7.655982 !GC
 C          0.0000000000        0.0000000000        0.0000000000
 C          1.5296400221        0.0000000000        0.0000000000
 C          2.0553592524        1.4458109903        0.0000000000
 C          1.7987501096        2.1477157631        1.3352729785
 N          2.2765357367        1.3850328064        2.4706581163
 C          1.7834086817        0.0246080515        2.5457896750
 C          2.0348599718       -0.7725375045        1.2648387322
 S          3.8509880731        1.6378983629        2.9366213494
 O          4.4245305750        0.3937064454        3.4128373675
 O          4.5796237301        2.3004341554        1.8703831344
 C          3.6913810702        2.7671314244        4.3197228458
 N          2.0217766332       -0.6761497036       -1.2032873507
 C          1.2488316124       -1.2252776911       -2.1864564891
 N          1.9109612960       -1.7732129966       -3.1566845688
 C          3.2305794976       -1.5939262782       -2.8278050993
 C          3.3235631808       -0.9000375911       -1.5933536800
 C          4.6122641374       -0.6288634482       -1.1051549158
 C          5.2469371124       -0.0043195829        0.0047606721
 C          6.5931772791       -0.1158792631       -0.1876676100
 N          6.8487021252       -0.7729756395       -1.3517661447
 C          5.6684816031       -1.1012923415       -1.9385661770
 N          5.5793298453       -1.7557938297       -3.0995012538
 C          4.3639438679       -1.9979953156       -3.5378163842
 H          3.1288714966        1.4454302666       -0.1878554072
 H          1.5748844726        2.0088110710       -0.8015669769
 H          2.3300598661        3.0986543516        1.3509082264
 H          0.7305477087        2.3256718888        1.4773793987
 H          2.3063103404       -0.4501852226        3.3755944171
 H          0.7158536991        0.0692925663        2.7746961239
 H          1.5436516889       -1.7437285965        1.3413362833
 H          3.1068902915       -0.9456854819        1.1721933876
 H          0.1799151045       -1.2117402917       -2.1706740657
 H          4.8021325789        0.4763212287        0.8534363823
 H          7.3859150326        0.2371437549        0.4409645926
 H          4.2757795727       -2.5257972849       -4.4750458697
 H          7.7542846176       -0.9908468087       -1.7323872823
 H         -0.3917222613       -1.0134783067       -0.0094713100
 H         -0.3669015599        0.5067181063        0.8915660945
 H         -0.3745678457        0.5185784826       -0.8719985678
 H          4.6299132447        2.7543426571        4.8585288901
 H          2.8971131917        2.3625810082        4.9311366479
 H          3.4736781060        3.7592411818        3.9519052827
  42
    -7.576085 !GC
 C          0.0000000000        0.0000000000        0.0000000000
 C          1.5297205158        0.0000000000        0.0000000000
 C          2.0540208149        1.4463658706        0.0000000000
 C          1.8355656308        2.1445393894        1.3465927877
 N          2.2736251781        1.3556582322        2.4800293439
 C          1.7537683323        0.0074492937        2.5269447571
 C          2.0511004303       -0.7569585650        1.2377641966
 S          3.8009586000        1.6607711397        3.0483191034
 O          3.9798788970        0.8254473157        4.2152837448
 O          4.8346621096        1.5610321770        2.0277912068
 C          3.6847991496        3.3672332776        3.5780368557
 N          2.0210654770       -0.6741660010       -1.2046610591
 C          1.2467029442       -1.2287986821       -2.1835892084
 N          1.9073663365       -1.7963031039       -3.1434110954
 C          3.2269687005       -1.6256235528       -2.8116308259
 C          3.3219853489       -0.9144000934       -1.5873779918
 C          4.6125774552       -0.6362698115       -1.1070751600
 C          5.2516951233        0.0220759902       -0.0189508859
 C          6.5973487535       -0.1044533557       -0.2074347581
 N          6.8485045154       -0.8027571261       -1.3480924455
 C          5.6660455432       -1.1408376526       -1.9249962154
 N          5.5735917216       -1.8258838730       -3.0677716215
 C          4.3571220535       -2.0648665143       -3.5047734638
 H          3.1198363606        1.4462597645       -0.2198450173
 H          1.5484423714        2.0155510308       -0.7816216257
 H          2.4061008088        3.0720306667        1.3539120305
 H          0.7783440523        2.3778362538        1.4947660824
 H          2.2438241325       -0.4798178344        3.3695348884
 H          0.6800496739        0.0621625131        2.7178280519
 H          1.5960102032       -1.7472209598        1.2844953304
 H          3.1314117866       -0.8884637589        1.1566300258
 H          0.1780592890       -1.2032625019       -2.1732867725
 H          4.8122137178        0.5366302541        0.8131007440
 H          7.3916480803        0.2659046027        0.4092213675
 H          4.2656953798       -2.6123841025       -4.4302796496
 H          7.7527201871       -1.0371851562       -1.7220753032
 H         -0.4037494793       -1.0050423561        0.0149773188
 H         -0.3914792580        0.5578939928        0.8487163077
 H         -0.3378100063        0.4916940622       -0.9071058472
 H          2.9249621373        3.3894156621        4.3459690751
 H          3.4154744438        3.9772947692        2.7276276044
 H          4.6508292599        3.6572269652        3.9687555962
  42
    -7.550042 !GC
 C          0.0000000000        0.0000000000        0.0000000000
 C          1.5295379541        0.0000000000        0.0000000000
 C          2.0547343454        1.4463882425        0.0000000000
 C          1.7924691246        2.1479731712        1.3343957635
 N          2.2687205827        1.3833671685        2.4676229007
 C          1.7888137867        0.0190976748        2.5334608440
 C          2.0484445903       -0.7591644474        1.2420929167
 S          3.8089476415        1.6847355743        3.0053930231
 O          4.4584321056        0.4388103037        3.3667016334
 O          4.5174950485        2.5142935588        2.0484810824
 C          3.5273968796        2.6368884077        4.4962494486
 N          2.0217678171       -0.6751015545       -1.2038833647
 C          1.2484484668       -1.2250436751       -2.1863952422
 N          1.9103070266       -1.7733893920       -3.1565108754
 C          3.2299332481       -1.5940037662       -2.8282706601
 C          3.3234650635       -0.8993406823       -1.5941835368
 C          4.6125549193       -0.6281908063       -1.1067645309
 C          5.2482137741       -0.0034632594        0.0025273214
 C          6.5942654519       -0.1160706443       -0.1903653961
 N          6.8489276690       -0.7740388883       -1.3542560592
 C          5.6682119428       -1.1014510078       -1.9403765482
 N          5.5783480029       -1.7551297661       -3.1014917795
 C          4.3628145211       -1.9976181877       -3.5391717976
 H          3.1289086896        1.4461606548       -0.1842119406
 H          1.5768812043        2.0090302408       -0.8033199528
 H          2.3218616607        3.0999119743        1.3513798923
 H          0.7245392010        2.3282298919        1.4757249961
 H          2.3176902889       -0.4611602208        3.3559968329
 H          0.7213580649        0.0498894820        2.7639217275
 H          1.5664042867       -1.7357841471        1.3058522529
 H          3.1219660892       -0.9208548585        1.1466412803
 H          0.1795396936       -1.2115341752       -2.1705608467
 H          4.8040302500        0.4773500013        0.8514581341
 H          7.3874393138        0.2370128555        0.4376454349
 H          4.2742415005       -2.5238639196       -4.4772698464
 H          7.7542389073       -0.9920407210       -1.7356147125
 H         -0.3778081354        0.4723861647        0.9028418220
 H         -0.4036271003        0.4895717300       -0.8791469692
 H         -0.3510356523       -1.0281936168       -0.0083585832
 H          4.5018394019        2.7592607924        4.9472749773
 H          2.8336520847        2.1009295755        5.1251902872
 H          3.1215517668        3.5998209824        4.2109918200
  42
    -7.501079 !GC
 C          0.0000000000        0.0000000000        0.0000000000
 C          1.5296594516        0.0000000000        0.0000000000
 C          2.0545137982        1.4467019050        0.0000000000
 C          1.7894937663        2.1475158506        1.3342945232
 N          2.2633638183        1.3814329407        2.4666106391
 C          1.7885220229        0.0159724256        2.5285173768
 C          2.0540564411       -0.7557025434        1.2339819840
 S          3.7894040690        1.6890076837        3.0353620321
 O          4.4556029778        0.4454260489        3.3735596197
 O          4.4985811144        2.5613124760        2.1179002302
 C          3.4633190083        2.5927148275        4.5460577566
 N          2.0211369965       -0.6748368369       -1.2043803541
 C          1.2472339942       -1.2245998171       -2.1864565341
 N          1.9083795592       -1.7695851073       -3.1589754503
 C          3.2283237715       -1.5874007102       -2.8331805780
 C          3.3225096339       -0.8956251424       -1.5975320481
 C          4.6119011268       -0.6240863770       -1.1111699688
 C          5.2479001400       -0.0019765453       -0.0006392099
 C          6.5939222777       -0.1117219065       -0.1955767031
 N          6.8481124756       -0.7650792398       -1.3621453435
 C          5.6671865574       -1.0928243061       -1.9477627909
 N          5.5767217592       -1.7437574847       -3.1105225556
 C          4.3609064947       -1.9873574563       -3.5467122210
 H          3.1288366480        1.4466354143       -0.1831218788
 H          1.5772589332        2.0089421594       -0.8039636599
 H          2.3191571637        3.0993051253        1.3528118456
 H          0.7218414374        2.3307070705        1.4749584194
 H          2.3176887506       -0.4659253049        3.3496746960
 H          0.7206746728        0.0409025839        2.7571350258
 H          1.5772547630       -1.7351738323        1.2930902061
 H          3.1284276587       -0.9113245643        1.1384736635
 H          0.1783635903       -1.2140023685       -2.1683692587
 H          4.8034973810        0.4758161012        0.8498211713
 H          7.3876452590        0.2396885425        0.4327370219
 H          4.2720839547       -2.5128450034       -4.4851685133
 H          7.7533321258       -0.9799356448       -1.7451254085
 H         -0.3514125842       -1.0258688009       -0.0451458114
 H         -0.4185824941        0.4908774013        0.8760643386
 H         -0.3628263078        0.4953616120       -0.8933308424
 H          4.4014602415        2.8214570377        5.0304522196
 H          2.8073678946        1.9896471080        5.1562150845
 H          2.9789278031        3.5112604856        4.2374134656
  42
    -7.486881 !GC
 C          0.0000000000        0.0000000000        0.0000000000
 C          1.5297611412        0.0000000000        0.0000000000
 C          2.0548226990        1.4466157074        0.0000000000
 C          1.7886587626        2.1483564085        1.3336571516
 N          2.2626629822        1.3836521008        2.4672012601
 C          1.7890379447        0.0176732073        2.5285356537
 C          2.0550533768       -0.7549952014        1.2345783647
 S          3.7842193550        1.7030177257        3.0427445479
 O          4.4819629701        0.4625234783        3.3250164584
 O          4.4668535900        2.6293185734        2.1590879223
 C          3.4459929042        2.5328196176        4.5925497813
 N          2.0212723626       -0.6745633705       -1.2045225631
 C          1.2472929939       -1.2243434750       -2.1864468439
 N          1.9083933531       -1.7656584853       -3.1610058595
 C          3.2283857221       -1.5810256134       -2.8367802942
 C          3.3226515794       -0.8913043517       -1.6000296628
 C          4.6120797849       -0.6174355740       -1.1152155488
 C          5.2485325607        0.0016482642       -0.0032637009
 C          6.5944821589       -0.1037345984       -0.2010861182
 N          6.8483700134       -0.7513270790       -1.3707968879
 C          5.6672209423       -1.0810936976       -1.9549622411
 N          5.5768192854       -1.7289641823       -3.1194316829
 C          4.3609189477       -1.9755279735       -3.5537514211
 H          3.1294446887        1.4461125014       -0.1812315911
 H          1.5789455457        2.0083292666       -0.8052968572
 H          2.3179238283        3.1002934641        1.3514633125
 H          0.7207778275        2.3308592948        1.4734128787
 H          2.3182122785       -0.4632316740        3.3503714386
 H          0.7211668475        0.0422454203        2.7574956323
 H          1.5787495357       -1.7348305503        1.2943570634
 H          3.1296585519       -0.9102681808        1.1396138340
 H          0.1786249833       -1.2169327308       -2.1662753435
 H          4.8048585926        0.4728945588        0.8510399708
 H          7.3882179748        0.2475731894        0.4273933691
 H          4.2717088213       -2.4984673442       -4.4933593324
 H          7.7531520685       -0.9641871448       -1.7560950977
 H         -0.3850208707        0.4566102044        0.9078356002
 H         -0.4186259753        0.4868218897       -0.8783951258
 H         -0.3290454983       -1.0314846521        0.0042484704
 H          2.8190566418        3.3751555413        4.3317055626
 H          4.3901438878        2.8469381537        5.0104918680
 H          2.9051209591        1.8658889336        5.2491416604
  42
    -7.476884 !GC
 C          0.0000000000        0.0000000000        0.0000000000
 C          1.5296856941        0.0000000000        0.0000000000
 C          2.0542901215        1.4469136008        0.0000000000
 C          1.7924725964        2.1475569102        1.3351000629
 N          2.2687293657        1.3800564191        2.4655305169
 C          1.7911617956        0.0156838887        2.5276146909
 C          2.0541537205       -0.7559627733        1.2325933108
 S          3.7970296435        1.6801708657        3.0318415349
 O          4.4851296108        0.4306953010        3.2982274778
 O          4.4823509273        2.6085506753        2.1521966680
 C          3.4771403029        2.4989655712        4.5915216659
 N          2.0215520683       -0.6742062316       -1.2046217457
 C          1.2484728869       -1.2251692636       -2.1866739043
 N          1.9104817616       -1.7669454135       -3.1604861825
 C          3.2301319991       -1.5815687262       -2.8352852580
 C          3.3232544006       -0.8911799239       -1.5987651166
 C          4.6120853333       -0.6170989494       -1.1125345361
 C          5.2468460602        0.0038845804       -0.0007035188
 C          6.5930842009       -0.1014620635       -0.1967145077
 N          6.8485061078       -0.7506525689       -1.3653703050
 C          5.6681584437       -1.0807105058       -1.9508685964
 N          5.5788901927       -1.7294510125       -3.1148894993
 C          4.3635002272       -1.9764604539       -3.5504857486
 H          3.1282078269        1.4470561960       -0.1852768385
 H          1.5753663269        2.0093170928       -0.8028283226
 H          2.3230548521        3.0987455804        1.3523637078
 H          0.7252052341        2.3307419320        1.4782155172
 H          2.3193727727       -0.4674937169        3.3487274784
 H          0.7235192109        0.0428353361        2.7571532424
 H          1.5757448251       -1.7346429128        1.2916729053
 H          3.1282755209       -0.9132915280        1.1365289667
 H          0.1795987200       -1.2177783726       -2.1675076733
 H          4.8014687224        0.4766683262        0.8520465748
 H          7.3861172997        0.2505864688        0.4320748753
 H          4.2755499117       -2.5008462700       -4.4896519396
 H          7.7540060797       -0.9620410521       -1.7497052954
 H         -0.3516637065       -1.0259016091       -0.0434346011
 H         -0.4184507694        0.4903482962        0.8764612465
 H         -0.3626241519        0.4946772432       -0.8937217987
 H          2.8474432400        3.3431138276        4.3442622912
 H          4.4262156087        2.8097645881        5.0012105045
 H          2.9432947462        1.8272172883        5.2493696061
  42
    -7.474223 !GC
 C          0.0000000000        0.0000000000        0.0000000000
 C          1.5297549591        0.0000000000        0.0000000000
 C          2.0545561588        1.4467625220        0.0000000000
 C          1.7931635058        2.1480338341        1.3347714185
 N          2.2668216746        1.3807162581        2.4666091787
 C          1.7878586908        0.0165108880        2.5281605438
 C          2.0537196842       -0.7555529639        1.2339941999
 S          3.7893859656        1.6975469078        3.0408268979
 O          4.4647098632        0.4559017963        3.3683439531
 O          4.4927060987        2.5832278039        2.1317846404
 C          3.4543209717        2.5839502713        4.5603728386
 N          2.0225910936       -0.6739550407       -1.2043204790
 C          1.2503707525       -1.2286647573       -2.1849311124
 N          1.9133283891       -1.7723516659       -3.1570370792
 C          3.2326524654       -1.5841866106       -2.8322528298
 C          3.3247016775       -0.8906767348       -1.5973542639
 C          4.6130810191       -0.6126736460       -1.1120611429
 C          5.2468410366        0.0139922179       -0.0028106046
 C          6.5931495048       -0.0858602436       -0.2006508256
 N          6.8496688005       -0.7368906351       -1.3679976464
 C          5.6699658799       -1.0745674794       -1.9504337733
 N          5.5817296613       -1.7274476114       -3.1122730019
 C          4.3668044517       -1.9788386908       -3.5466031587
 H          3.1284348261        1.4465075150       -0.1855999231
 H          1.5755955243        2.0091921454       -0.8029317112
 H          2.3258241626        3.0981157729        1.3513829890
 H          0.7261685371        2.3336424246        1.4774446328
 H          2.3147464378       -0.4667401215        3.3501293838
 H          0.7197635972        0.0448873542        2.7552768537
 H          1.5770107415       -1.7350915211        1.2927485922
 H          3.1281772959       -0.9112808543        1.1396780768
 H          0.1814566084       -1.2220657687       -2.1665387131
 H          4.8011451331        0.4871541933        0.8495476327
 H          7.3855101556        0.2715379336        0.4260129296
 H          4.2801045242       -2.5064051888       -4.4841067278
 H          7.7559051032       -0.9425794072       -1.7539015871
 H         -0.3961117292        0.4766008301        0.8915075516
 H         -0.4055167284        0.4719478550       -0.8871075640
 H         -0.3309559122       -1.0363970835       -0.0029239891
 H          4.4147983909        2.7933554158        5.0125224999
 H          2.8509607659        1.9596105123        5.2040495134
 H          2.9374238470        3.4927908660        4.2885464942
  42
    -7.462191 !GC
 C          0.0000000000        0.0000000000        0.0000000000
 C          1.5295124686        0.0000000000        0.0000000000
 C          2.0541104856        1.4468991497        0.0000000000
 C          1.7931043802        2.1477659409        1.3350949291
 N          2.2681603342        1.3802438898        2.4657727943
 C          1.7899698802        0.0159305328        2.5279970763
 C          2.0537606588       -0.7562438066        1.2332862043
 S          3.7951447496        1.6882297046        3.0330578413
 O          4.4700018172        0.4436949160        3.3512280216
 O          4.4950053117        2.5765181255        2.1239487811
 C          3.4726806502        2.5695977892        4.5578585863
 N          2.0212819201       -0.6738549906       -1.2049538881
 C          1.2468097907       -1.2214453259       -2.1877633929
 N          1.9073089546       -1.7665218702       -3.1606429195
 C          3.2273317328       -1.5864564960       -2.8344899266
 C          3.3225563664       -0.8956936565       -1.5982790731
 C          4.6125277500       -0.6268459499       -1.1118237974
 C          5.2502666477       -0.0062136068       -0.0015082900
 C          6.5960017027       -0.1210889915       -0.1954138924
 N          6.8485335239       -0.7752666788       -1.3618198078
 C          5.6667885440       -1.0986823302       -1.9480623163
 N          5.5753707001       -1.7489462861       -3.1110043043
 C          4.3590376379       -1.9889169907       -3.5480210262
 H          3.1280836268        1.4469030886       -0.1851766846
 H          1.5751413207        2.0093278241       -0.8028192757
 H          2.3254630404        3.0979644155        1.3520947049
 H          0.7261888526        2.3335331168        1.4786409990
 H          2.3183005636       -0.4673478324        3.3489413979
 H          0.7222228159        0.0431894000        2.7567804953
 H          1.5757703966       -1.7352280497        1.2923048112
 H          3.1279270696       -0.9130203715        1.1373934427
 H          0.1779773283       -1.2101763290       -2.1694152611
 H          4.8082153172        0.4742460248        0.8487150995
 H          7.3904695300        0.2278303902        0.4333246609
 H          4.2691743669       -2.5127645302       -4.4872425827
 H          7.7530692927       -0.9929059394       -1.7451322695
 H         -0.4045003313       -1.0050006449       -0.0267855730
 H         -0.3957634864        0.5362046872        0.8579994238
 H         -0.3319068581        0.5118483584       -0.8998261183
 H          4.4214770370        2.7482311919        5.0401839374
 H          2.8429505223        1.9076442989        5.1373302490
 H          2.9332338984        3.4820830182        4.3437561210
  42
    -7.459644 !GC
 C          0.0000000000        0.0000000000        0.0000000000
 C          1.5294975811        0.0000000000        0.0000000000
 C          2.0560398158        1.4460670864        0.0000000000
 C          1.7966011762        2.1447363077        1.3364533826
 N          2.2737934994        1.3763872200        2.4663912911
 C          1.7949374384        0.0122504115        2.5297312390
 C          2.0538485716       -0.7605744329        1.2347266829
 S          3.8020272878        1.6905770639        3.0271804927
 O          4.4924586110        0.4475656339        3.3161464294
 O          4.4851505384        2.6019753263        2.1283994199
 C          3.4808907307        2.5394170034        4.5710707658
 N          2.0226096068       -0.6751860228       -1.2034898150
 C          1.2494558054       -1.2273794540       -2.1848255954
 N          1.9113846174       -1.7620532934       -3.1624979123
 C          3.2309357878       -1.5710192543       -2.8406972117
 C          3.3243024280       -0.8841807877       -1.6022676973
 C          4.6132285150       -0.6056171240       -1.1186829514
 C          5.2485022562        0.0128253945       -0.0056925807
 C          6.5946360163       -0.0846446759       -0.2067322271
 N          6.8495302991       -0.7268130875       -1.3794106666
 C          5.6688929273       -1.0602750077       -1.9626075409
 N          5.5791583820       -1.7047644836       -3.1290398520
 C          4.3636176838       -1.9577916440       -3.5608877960
 H          3.1298956413        1.4452078432       -0.1859721481
 H          1.5771736387        2.0100924625       -0.8017658380
 H          2.3277466107        3.0956621821        1.3537980069
 H          0.7295600287        2.3283805001        1.4817863138
 H          2.3252994327       -0.4714613817        3.3492190349
 H          0.7280640535        0.0409465976        2.7627100020
 H          1.5717578990       -1.7374131340        1.2945511793
 H          3.1272020897       -0.9217263545        1.1374548669
 H          0.1805681098       -1.2265168090       -2.1619002852
 H          4.8040630217        0.4784804364        0.8516296171
 H          7.3877948341        0.2675380635        0.4218018790
 H          4.2752073328       -2.4776652228       -4.5025845421
 H          7.7549250449       -0.9324459985       -1.7673004722
 H         -0.3956162151        0.4857591370        0.8850934902
 H         -0.3669905468        0.4994638451       -0.8955880776
 H         -0.3703067162       -1.0183044012       -0.0238425484
 H          2.9119948616        3.4278545690        4.3366833861
 H          4.4493262016        2.8113233798        4.9663252309
 H          2.9576195572        1.8727365304        5.2427392358
  42
    -7.448116 !GC
 C          0.0000000000        0.0000000000        0.0000000000
 C          1.5295443885        0.0000000000        0.0000000000
 C          2.0551719389        1.4463125586        0.0000000000
 C          1.7907288724        2.1473367786        1.3341562993
 N          2.2669543174        1.3816003398        2.4659812988
 C          1.7922928015        0.0159990343        2.5284451009
 C          2.0545032777       -0.7560891333        1.2333618777
 S          3.7896138981        1.7042317708        3.0364649571
 O          4.4787979025        0.4654511052        3.3459623642
 O          4.4794581625        2.6060890770        2.1331122622
 C          3.4542370519        2.5714710213        4.5669103995
 N          2.0208326522       -0.6738692134       -1.2049752743
 C          1.2467215198       -1.2200289881       -2.1889136544
 N          1.9077681119       -1.7660915448       -3.1609040010
 C          3.2276628333       -1.5894831844       -2.8321507123
 C          3.3221921088       -0.8983746637       -1.5960334380
 C          4.6117452563       -0.6311205394       -1.1075948417
 C          5.2483995972       -0.0101986051        0.0033014780
 C          6.5943329701       -0.1255226895       -0.1892370548
 N          6.8478538323       -0.7813603163       -1.3545412309
 C          5.6666799091       -1.1049559344       -1.9417316274
 N          5.5759922408       -1.7561810812       -3.1042253026
 C          4.3600408332       -1.9942441137       -3.5431777152
 H          3.1296318388        1.4452388015       -0.1824304879
 H          1.5788628875        2.0088224677       -0.8042610693
 H          2.3201902635        3.0992183382        1.3514072768
 H          0.7230049570        2.3290606068        1.4761746660
 H          2.3235939200       -0.4660173067        3.3483047060
 H          0.7251305747        0.0412650304        2.7602854629
 H          1.5761681070       -1.7347350092        1.2935764702
 H          3.1284999535       -0.9134903966        1.1363214416
 H          0.1778764177       -1.2057948934       -2.1725510539
 H          4.8053073318        0.4699953293        0.8531241247
 H          7.3882791488        0.2237409638        0.4400099334
 H          4.2711904174       -2.5164009605       -4.4835262964
 H          7.7527396559       -0.9994303362       -1.7364550590
 H         -0.3705883764       -1.0224472972       -0.0234889988
 H         -0.3679457124        0.4875145107        0.9021162637
 H         -0.3938520174        0.5187318224       -0.8615543215
 H          2.8593014312        3.4334862687        4.3003460231
 H          4.3956758014        2.8562124443        5.0139010949
 H          2.8711735282        1.9137720400        5.1972445030
  42
    -7.433861 !GC
 C          0.0000000000        0.0000000000        0.0000000000
 C          1.5296832970        0.0000000000        0.0000000000
 C          2.0546085416        1.4466466545        0.0000000000
 C          1.7904604265        2.1475221953        1.3344851188
 N          2.2644715515        1.3812867305        2.4669393322
 C          1.7891068963        0.0158241740        2.5282387936
 C          2.0544955916       -0.7556589675        1.2336550813
 S          3.7868231427        1.7006531195        3.0405673104
 O          4.4770025497        0.4601534966        3.3407595872
 O          4.4760938098        2.6098970090        2.1442239203
 C          3.4502807636        2.5553626032        4.5778300809
 N          2.0211847294       -0.6749529225       -1.2042495172
 C          1.2473251180       -1.2253897013       -2.1859853922
 N          1.9085567827       -1.7716593526       -3.1577703095
 C          3.2284427620       -1.5902286067       -2.8314426171
 C          3.3226159995       -0.8970050689       -1.5965664973
 C          4.6119852050       -0.6252506244       -1.1102752733
 C          5.2481872354       -0.0016383396       -0.0006754162
 C          6.5941916276       -0.1119150019       -0.1955459837
 N          6.8482263583       -0.7678084149       -1.3607570972
 C          5.6671793478       -1.0957640292       -1.9460548154
 N          5.5768178013       -1.7482786735       -3.1079052671
 C          4.3609777891       -1.9915684644       -3.5443294163
 H          3.1288970399        1.4462869987       -0.1834886382
 H          1.5772842699        2.0090661835       -0.8038138265
 H          2.3211714213        3.0987212235        1.3523300928
 H          0.7229594174        2.3310757346        1.4759658124
 H          2.3182945506       -0.4665088421        3.3492448773
 H          0.7213051422        0.0414929228        2.7571990136
 H          1.5781370042       -1.7353764912        1.2926438173
 H          3.1290225372       -0.9106858781        1.1382514008
 H          0.1784440546       -1.2139827245       -2.1683474379
 H          4.8046033989        0.4763749743        0.8499641240
 H          7.3877108379        0.2402266193        0.4325952952
 H          4.2720298224       -2.5172653714       -4.4827195433
 H          7.7532451696       -0.9834908815       -1.7439822555
 H         -0.4073197411       -1.0093868018       -0.0436081037
 H         -0.3852922503        0.5353132720        0.8636500895
 H         -0.3404163073        0.5380618589       -0.8739347161
 H          4.4026433007        2.7984849404        5.0266320338
 H          2.8652961503        1.8853776234        5.1894618395
 H          2.8976829063        3.4574707430        4.3473162381
  42
    -7.432605 !GC
 C          0.0000000000        0.0000000000        0.0000000000
 C          1.5296787550        0.0000000000        0.0000000000
 C          2.0541020478        1.4468219826        0.0000000000
 C          1.7911668109        2.1472912136        1.3350073235
 N          2.2643565078        1.3804912421        2.4674442515
 C          1.7881907008        0.0152726265        2.5281046729
 C          2.0552046099       -0.7554384673        1.2334701536
 S          3.7868722105        1.6966214780        3.0423410776
 O          4.4798416319        0.4547837109        3.3311133470
 O          4.4732141655        2.6146035508        2.1529406856
 C          3.4507597612        2.5370137908        4.5875878216
 N          2.0210974787       -0.6751951914       -1.2041566687
 C          1.2470331862       -1.2306614635       -2.1829223201
 N          1.9080169593       -1.7767477805       -3.1549607122
 C          3.2279849877       -1.5896166355       -2.8321391678
 C          3.3224647107       -0.8939392980       -1.5986756162
 C          4.6120048558       -0.6174864189       -1.1154394618
 C          5.2485761633        0.0086877260       -0.0074840506
 C          6.5945351099       -0.0971819982       -0.2052866199
 N          6.8481375338       -0.7524299636       -1.3709228406
 C          5.6669353690       -1.0849382138       -1.9532875400
 N          5.5762363181       -1.7391942228       -3.1141218125
 C          4.3602539579       -1.9878870921       -3.5471170441
 H          3.1280711079        1.4468963564       -0.1848250411
 H          1.5756468474        2.0093824565       -0.8030325163
 H          2.3228053355        3.0979977038        1.3531668604
 H          0.7238877063        2.3319585485        1.4768467380
 H          2.3162238615       -0.4676317893        3.3495010265
 H          0.7201225718        0.0412490983        2.7556582167
 H          1.5803797231       -1.7359214438        1.2918557697
 H          3.1301120646       -0.9085725693        1.1384636907
 H          0.1781490342       -1.2231777591       -2.1629175889
 H          4.8052002385        0.4844441314        0.8445197896
 H          7.3883639643        0.2578874686        0.4208041199
 H          4.2709279027       -2.5165982264       -4.4837616769
 H          7.7530900377       -0.9657287044       -1.7556500525
 H         -0.4076161553        0.4966641421        0.8796692371
 H         -0.3628840595        0.4926681626       -0.8947799271
 H         -0.3625971099       -1.0207284195       -0.0403849343
 H          4.4031880959        2.7799835441        5.0363789478
 H          2.8697338360        1.8594182189        5.1946080438
 H          2.8942340218        3.4389748350        4.3660689038
  42
    -7.419681 !GC
 C          0.0000000000        0.0000000000        0.0000000000
 C          1.5296774933        0.0000000000        0.0000000000
 C          2.0552436103        1.4464163653        0.0000000000
 C          1.7898774111        2.1479972285        1.3337181000
 N          2.2654623282        1.3825103146        2.4659625861
 C          1.7908089535        0.0168919318        2.5284130335
 C          2.0537781447       -0.7557360609        1.2338968016
 S          3.7870199128        1.7063365893        3.0384793140
 O          4.4744204428        0.4677565063        3.3524065061
 O          4.4795507549        2.6054479225        2.1343852824
 C          3.4491570737        2.5779328605        4.5658878512
 N          2.0214537256       -0.6741068858       -1.2046349501
 C          1.2479142155       -1.2196450384       -2.1893474664
 N          1.9094529551       -1.7619593830       -3.1631076210
 C          3.2292093663       -1.5825299352       -2.8352431286
 C          3.3230027222       -0.8946796974       -1.5973721961
 C          4.6121880053       -0.6259945436       -1.1089203161
 C          5.2480239812       -0.0084411966        0.0042789940
 C          6.5941194268       -0.1189160786       -0.1900430577
 N          6.8485187896       -0.7694794760       -1.3581081913
 C          5.6676673845       -1.0935075875       -1.9459748222
 N          5.5776154150       -1.7404051484       -3.1109664090
 C          4.3619384042       -1.9812957573       -3.5491207629
 H          3.1298706718        1.4453895580       -0.1816101248
 H          1.5794512228        2.0084301519       -0.8049681827
 H          2.3191097312        3.1000178145        1.3508517416
 H          0.7221136590        2.3298693231        1.4751976212
 H          2.3215068255       -0.4646214081        3.3489304890
 H          0.7233788373        0.0423930941        2.7591504935
 H          1.5752433340       -1.7342969593        1.2941119295
 H          3.1277480517       -0.9134425030        1.1377053875
 H          0.1790573095       -1.2082736735       -2.1719913094
 H          4.8040651850        0.4668825787        0.8563999805
 H          7.3875016181        0.2301749634        0.4400371580
 H          4.2733353636       -2.5032472480       -4.4895900330
 H          7.7537060133       -0.9840445214       -1.7414498821
 H         -0.3627175854       -1.0205134074       -0.0467747200
 H         -0.4072516481        0.4910676161        0.8830817362
 H         -0.3629110280        0.4984851090       -0.8915694670
 H          2.8822909436        3.4593247107        4.3067862098
 H          4.4011297730        2.8170504014        5.0177579106
 H          2.8778884054        1.9205779076        5.2092353317
  42
    -7.414033 !GC
 C          0.0000000000        0.0000000000        0.0000000000
 C          1.5296936425        0.0000000000        0.0000000000
 C          2.0553057107        1.4464010102        0.0000000000
 C          1.7899386545        2.1481387308        1.3336594353
 N          2.2651114690        1.3826359259        2.4660700591
 C          1.7904236938        0.0169821026        2.5283257236
 C          2.0536734232       -0.7557379229        1.2339315914
 S          3.7872534045        1.7057625414        3.0379223114
 O          4.4740695624        0.4668709043        3.3518676878
 O          4.4799708093        2.6042743285        2.1333663706
 C          3.4504254842        2.5777353280        4.5653486636
 N          2.0213869921       -0.6743995917       -1.2045015669
 C          1.2477440696       -1.2197703107       -2.1892182376
 N          1.9091613633       -1.7632901765       -3.1623845445
 C          3.2289645343       -1.5848115385       -2.8341251520
 C          3.3228854269       -0.8963128968       -1.5966250841
 C          4.6121115911       -0.6281652356       -1.1080104359
 C          5.2480610212       -0.0095308562        0.0044852268
 C          6.5941314348       -0.1213869835       -0.1891728535
 N          6.8484240274       -0.7734438377       -1.3564379169
 C          5.6675075237       -1.0972749220       -1.9442835128
 N          5.5773645784       -1.7451279187       -3.1087404855
 C          4.3616275294       -1.9850663383       -3.5473057908
 H          3.1299333815        1.4453433667       -0.1817259343
 H          1.5794838801        2.0084902067       -0.8049012010
 H          2.3194813602        3.0999896937        1.3508675772
 H          0.7221990225        2.3303120553        1.4749820583
 H          2.3208813390       -0.4646594199        3.3489417060
 H          0.7229419291        0.0425079885        2.7588524729
 H          1.5753296666       -1.7344134769        1.2940206629
 H          3.1276838515       -0.9132294395        1.1379407313
 H          0.1788995531       -1.2073143289       -2.1723158077
 H          4.8042287678        0.4674716169        0.8557304567
 H          7.3875213101        0.2276593699        0.4408786712
 H          4.2729112099       -2.5075567240       -4.4874648051
 H          7.7535006616       -0.9888296097       -1.7395741227
 H         -0.3851573138        0.4533822270        0.9093073676
 H         -0.4075749266        0.4933984572       -0.8814921783
 H         -0.3406476759       -1.0261409247       -0.0014409060
 H          2.8864147636        3.4608171229        4.3060580003
 H          4.4024895429        2.8139581904        5.0184433155
 H          2.8765601637        1.9218971979        5.2077916109
  42
    -7.406474 !GC
 C          0.0000000000        0.0000000000        0.0000000000
 C          1.5296642459        0.0000000000        0.0000000000
 C          2.0544029435        1.4467015809        0.0000000000
 C          1.7891599721        2.1475467462        1.3342248530
 N          2.2635859113        1.3814263297        2.4665619115
 C          1.7895853603        0.0155032745        2.5274038638
 C          2.0547060331       -0.7548053866        1.2319943883
 S          3.7843898891        1.7032005836        3.0423331868
 O          4.4772907813        0.4635397875        3.3395996634
 O          4.4721820087        2.6168179934        2.1493833693
 C          3.4442132026        2.5525313713        4.5817358236
 N          2.0212436869       -0.6746435928       -1.2043754960
 C          1.2478683070       -1.2225540855       -2.1879129031
 N          1.9095959250       -1.7676337302       -3.1600164423
 C          3.2292895649       -1.5881483678       -2.8319083364
 C          3.3229186098       -0.8968325315       -1.5959277447
 C          4.6120183038       -0.6268265730       -1.1079175517
 C          5.2476048259       -0.0051815512        0.0031080835
 C          6.5937166789       -0.1177990047       -0.1897068769
 N          6.8483822802       -0.7724845136       -1.3554249842
 C          5.6677066804       -1.0978237110       -1.9427976737
 N          5.5779196186       -1.7484982221       -3.1056725729
 C          4.3622778884       -1.9896460860       -3.5439085816
 H          3.1288361115        1.4466015825       -0.1825201905
 H          1.5776039321        2.0089005973       -0.8042683968
 H          2.3190832363        3.0992020994        1.3521358219
 H          0.7214858929        2.3304296933        1.4755640789
 H          2.3197161362       -0.4668269694        3.3477893416
 H          0.7219298704        0.0400830512        2.7570502692
 H          1.5782829841       -1.7345113067        1.2902753318
 H          3.1291517499       -0.9098290926        1.1358293500
 H          0.1790087833       -1.2099287174       -2.1715511655
 H          4.8034796668        0.4738477263        0.8529789871
 H          7.3869027369        0.2328729230        0.4396862510
 H          4.2738404567       -2.5152415916       -4.4824616483
 H          7.7536589462       -0.9889951907       -1.7374312043
 H         -0.3991909042        0.4841000393        0.8839623099
 H         -0.3665987651        0.5003047617       -0.8953808714
 H         -0.3670822677       -1.0195569808       -0.0321706620
 H          4.3726090961        2.8084130890        5.0705172239
 H          2.8631581778        1.8549582566        5.1687601780
 H          2.8314241106        3.4133111259        4.3483718436
  42
    -7.405245 !GC
 C          0.0000000000        0.0000000000        0.0000000000
 C          1.5295670984        0.0000000000        0.0000000000
 C          2.0519085842        1.4466510981        0.0000000000
 C          1.8136525428        2.1479467251        1.3410159124
 N          2.2461350159        1.3661241051        2.4806838445
 C          1.7471309169        0.0112960486        2.5308749698
 C          2.0543679541       -0.7527558099        1.2431403702
 S          3.7336583537        1.7144630194        3.1196415920
 O          3.7307804493        1.1505589358        4.4492013546
 O          4.8607261371        1.3615140754        2.2663796048
 C          3.6692780360        3.4958926972        3.2629204439
 N          2.0182631884       -0.6738643688       -1.2058390545
 C          1.2420483086       -1.2262983742       -2.1849134716
 N          1.9014354581       -1.7831113900       -3.1519093506
 C          3.2219139554       -1.6082542222       -2.8247793519
 C          3.3185914654       -0.9063040626       -1.5956989414
 C          4.6093510300       -0.6380530322       -1.1111189834
 C          5.2486509628       -0.0054394959       -0.0083913863
 C          6.5940166164       -0.1294719247       -0.1991104724
 N          6.8448243204       -0.8023502017       -1.3552507349
 C          5.6621807574       -1.1264216365       -1.9395523206
 N          5.5685798763       -1.7896486655       -3.0949494932
 C          4.3515628138       -2.0251279892       -3.5325601181
 H          3.1206030799        1.4506666693       -0.2046797241
 H          1.5566508765        2.0120122969       -0.7908568471
 H          2.3783778224        3.0784639157        1.3463332467
 H          0.7532198362        2.3741869424        1.4763511032
 H          2.2525298140       -0.4662048184        3.3707979859
 H          0.6732875358        0.0465940352        2.7259887036
 H          1.6072723871       -1.7468212481        1.2912282988
 H          3.1361631762       -0.8778931423        1.1680222652
 H          0.1733804194       -1.2074264781       -2.1689170630
 H          4.8078839185        0.4919310363        0.8328560599
 H          7.3890600704        0.2253487287        0.4255980484
 H          4.2604747725       -2.5585231214       -4.4662948765
 H          7.7488490248       -1.0286417384       -1.7345601546
 H         -0.3877223003        0.5006800517       -0.8829626233
 H         -0.3852087989       -1.0152584335        0.0401123351
 H         -0.3599698708        0.5314968281        0.8736438249
 H          4.3519678779        3.8089749176        4.0372615500
 H          2.6433478540        3.7405426156        3.5022259091
 H          3.9362995850        3.9089006176        2.2998193549
  42
    -7.393672 !GC
 C          0.0000000000        0.0000000000        0.0000000000
 C          1.5296421669        0.0000000000        0.0000000000
 C          2.0554228592        1.4462162176        0.0000000000
 C          1.7904255609        2.1474453628        1.3339960745
 N          2.2645522095        1.3819017081        2.4672814788
 C          1.7884974828        0.0164645594        2.5282198868
 C          2.0539719158       -0.7552633349        1.2338588552
 S          3.7808781771        1.7203484734        3.0475145498
 O          4.4766296815        0.4890376981        3.3713387587
 O          4.4710119643        2.6202553010        2.1425248495
 C          3.4275300475        2.5976166591        4.5682829633
 N          2.0209484935       -0.6748208901       -1.2043478537
 C          1.2470481008       -1.2245952053       -2.1864225524
 N          1.9082797387       -1.7679084845       -3.1598417751
 C          3.2281895351       -1.5841283822       -2.8348312001
 C          3.3223961143       -0.8938758243       -1.5982996957
 C          4.6117258360       -0.6211974947       -1.1124506757
 C          5.2478664892       -0.0002202039       -0.0013532607
 C          6.5938964263       -0.1075976083       -0.1977865611
 N          6.8480265737       -0.7579748758       -1.3659791026
 C          5.6669764725       -1.0867274963       -1.9508930209
 N          5.5766153070       -1.7358736536       -3.1146022451
 C          4.3608079530       -1.9809790116       -3.5500784204
 H          3.1298299389        1.4451807949       -0.1825254593
 H          1.5791411469        2.0086940280       -0.8043546396
 H          2.3208331418        3.0988375333        1.3514550895
 H          0.7227624287        2.3306614574        1.4747659837
 H          2.3164653837       -0.4659876719        3.3499967752
 H          0.7204667829        0.0423046651        2.7563237352
 H          1.5771242673       -1.7347020913        1.2932997150
 H          3.1283384070       -0.9109539706        1.1384913545
 H          0.1781955725       -1.2150188263       -2.1676400839
 H          4.8042004492        0.4743065612        0.8514473122
 H          7.3873448961        0.2439613697        0.4308094510
 H          4.2720717419       -2.5060877736       -4.4887833085
 H          7.7531230186       -0.9700973187       -1.7508786226
 H         -0.3682728876       -1.0239489416       -0.0529814235
 H         -0.4157995599        0.5023613797        0.8644146790
 H         -0.3481575399        0.5155751724       -0.8890526978
 H          2.8717975831        3.4798745484        4.2843316466
 H          4.3636163911        2.8484059114        5.0455465272
 H          2.8025504266        1.9603760223        5.1791282116
  42
    -7.393393 !GC
 C          0.0000000000        0.0000000000        0.0000000000
 C          1.5297328801        0.0000000000        0.0000000000
 C          2.0545836894        1.4466383638        0.0000000000
 C          1.7851745954        2.1485353490        1.3327940444
 N          2.2588247917        1.3837886439        2.4662075537
 C          1.7889525467        0.0166108018        2.5282362493
 C          2.0550657176       -0.7550158383        1.2337700129
 S          3.7745002693        1.7147359854        3.0493932826
 O          4.4801967789        0.4802841696        3.3381446477
 O          4.4538999126        2.6437368976        2.1661287339
 C          3.4196995354        2.5477159876        4.5943362909
 N          2.0206093034       -0.6754749146       -1.2041480530
 C          1.2467494855       -1.2246251480       -2.1865366379
 N          1.9079872707       -1.7714785415       -3.1579839692
 C          3.2278982424       -1.5913229924       -2.8309164796
 C          3.3220173981       -0.8982961043       -1.5960405391
 C          4.6112884626       -0.6269443835       -1.1093299967
 C          5.2472633621       -0.0031321103        0.0002760013
 C          6.5933319458       -0.1135050144       -0.1943191173
 N          6.8475853591       -0.7691652992       -1.3595547905
 C          5.6666281044       -1.0976035744       -1.9448004470
 N          5.5762726795       -1.7503920289       -3.1064940748
 C          4.3604736252       -1.9936488218       -3.5430609582
 H          3.1295961522        1.4470156319       -0.1795532769
 H          1.5798911033        2.0079729263       -0.8060469299
 H          2.3140544226        3.1007727042        1.3513760646
 H          0.7168931771        2.3296475657        1.4713721279
 H          2.3214141729       -0.4635329100        3.3483904553
 H          0.7213845498        0.0379841447        2.7589695312
 H          1.5786260761       -1.7346242732        1.2931932438
 H          3.1294521418       -0.9103782455        1.1380721795
 H          0.1778959169       -1.2119246117       -2.1692674382
 H          4.8034303342        0.4754988800        0.8506319907
 H          7.3867601277        0.2393070131        0.4335684377
 H          4.2717557395       -2.5197822945       -4.4812036395
 H          7.7526008605       -0.9848294692       -1.7426912225
 H         -0.3961149035       -1.0109631035       -0.0114657675
 H         -0.3534352585        0.5193877275        0.8915380852
 H         -0.3831200380        0.5349100518       -0.8577523571
 H          4.3597749608        2.8202344666        5.0544964432
 H          2.8804489659        1.8320181848        5.1973240678
 H          2.8273268805        3.4253550490        4.3820580987
  42
    -7.380921 !GC
 C          0.0000000000        0.0000000000        0.0000000000
 C          1.5296774933        0.0000000000        0.0000000000
 C          2.0544936248        1.4466734922        0.0000000000
 C          1.7897903549        2.1485049992        1.3338802282
 N          2.2612455088        1.3818756036        2.4669199094
 C          1.7860760308        0.0164733101        2.5284327789
 C          2.0539942095       -0.7551204032        1.2344322319
 S          3.7783233602        1.7039503990        3.0515594054
 O          4.4476259278        0.4651017129        3.4005274814
 O          4.4924766634        2.5783251481        2.1401137827
 C          3.4263099599        2.6084994483        4.5563752404
 N          2.0210627970       -0.6743809181       -1.2046521502
 C          1.2467178212       -1.2246994749       -2.1861754868
 N          1.9075096107       -1.7718043282       -3.1577091220
 C          3.2275147537       -1.5914235661       -2.8313709748
 C          3.3223119619       -0.8970282262       -1.5973530598
 C          4.6121079321       -0.6260753794       -1.1115873002
 C          5.2493294792       -0.0017171661       -0.0030288301
 C          6.5952029389       -0.1149181484       -0.1974098895
 N          6.8481980387       -0.7740550781       -1.3609486643
 C          5.6666695087       -1.1000269762       -1.9462494880
 N          5.5755134350       -1.7544353026       -3.1068874779
 C          4.3593984590       -1.9958026189       -3.5435164179
 H          3.1288256580        1.4465489741       -0.1829965985
 H          1.5774790594        2.0087310059       -0.8041843690
 H          2.3220807920        3.0988247215        1.3513577212
 H          0.7223645144        2.3337524513        1.4738909127
 H          2.3150562233       -0.4648192832        3.3503251283
 H          0.7179527640        0.0412942251        2.7558310046
 H          1.5789411596       -1.7355118710        1.2930943014
 H          3.1288467842       -0.9089324145        1.1407060622
 H          0.1778389131       -1.2126142587       -2.1686601914
 H          4.8065339972        0.4797296974        0.8462564708
 H          7.3891913745        0.2378512221        0.4297839938
 H          4.2698177682       -2.5232585525       -4.4808236861
 H          7.7528680659       -0.9927220322       -1.7432441168
 H         -0.3719622229        0.4751700161        0.9048493838
 H         -0.4126124102        0.5012690460       -0.8666790937
 H         -0.3480295331       -1.0294822650        0.0093284051
 H          2.8848099552        3.5069840482        4.2908056338
 H          4.3635002871        2.8400758479        5.0385993703
 H          2.8090545550        1.9557873825        5.1594324217
  42
    -7.375843 !GC
 C          0.0000000000        0.0000000000        0.0000000000
 C          1.5296933902        0.0000000000        0.0000000000
 C          2.0531321238        1.4471759235        0.0000000000
 C          1.7846677713        2.1502534074        1.3324231062
 N          2.2611359697        1.3895911642        2.4674785382
 C          1.7902618112        0.0226952836        2.5331360814
 C          2.0561280616       -0.7508950895        1.2398224093
 S          3.7798748088        1.7171110143        3.0458302856
 O          4.4823111864        0.4794566123        3.3292013383
 O          4.4602355109        2.6452783948        2.1622686394
 C          3.4346920471        2.5447267998        4.5959414851
 N          2.0213716401       -0.6745499151       -1.2044022158
 C          1.2483227132       -1.2204969803       -2.1892366036
 N          1.9103678473       -1.7666245868       -3.1605546325
 C          3.2299502055       -1.5890576944       -2.8309962822
 C          3.3231066921       -0.8985463946       -1.5945455287
 C          4.6119800902       -0.6298686988       -1.1052928933
 C          5.2471287916       -0.0081822716        0.0059804465
 C          6.5933054566       -0.1222819938       -0.1855464565
 N          6.8483620451       -0.7771011403       -1.3510159104
 C          5.6679343849       -1.1015653391       -1.9393602073
 N          5.5785816643       -1.7526772809       -3.1019912364
 C          4.3632098487       -1.9924757326       -3.5415972731
 H          3.1279956411        1.4475180770       -0.1800774536
 H          1.5782601717        2.0084648129       -0.8060840801
 H          2.3106097904        3.1041197810        1.3483389128
 H          0.7160348860        2.3286105947        1.4719873737
 H          2.3224208606       -0.4557645583        3.3544526479
 H          0.7228468956        0.0455622848        2.7641397616
 H          1.5802663290       -1.7306945220        1.3004919633
 H          3.1307536682       -0.9053146659        1.1436130334
 H          0.1794654312       -1.2058361906       -2.1742258763
 H          4.8025996337        0.4718615152        0.8551272245
 H          7.3863254520        0.2275301951        0.4445489963
 H          4.2753472682       -2.5177269414       -4.4803000025
 H          7.7537462166       -0.9943031537       -1.7322897878
 H         -0.4002953470        0.4764281203        0.8880949438
 H         -0.3670052762        0.5033322464       -0.8934828760
 H         -0.3655977342       -1.0195632498       -0.0326779568
 H          4.3590945625        2.8204247402        5.0797104714
 H          2.8749145919        1.8242150564        5.1771821419
 H          2.7939866957        3.3887928102        4.3797962781
  42
    -7.367898 !GC
 C          0.0000000000        0.0000000000        0.0000000000
 C          1.5296810260        0.0000000000        0.0000000000
 C          2.0544172356        1.4466844993        0.0000000000
 C          1.7902047809        2.1475735073        1.3344269678
 N          2.2639324424        1.3817688497        2.4674290859
 C          1.7890234954        0.0159943524        2.5281262216
 C          2.0544774729       -0.7556636600        1.2336378997
 S          3.7870361911        1.7009891589        3.0384474002
 O          4.4599391529        0.4607401793        3.3753581119
 O          4.4928940600        2.5758629513        2.1210265495
 C          3.4559387926        2.6013669200        4.5505208561
 N          2.0213247939       -0.6744751493       -1.2044148760
 C          1.2477272516       -1.2221506717       -2.1878758444
 N          1.9092518377       -1.7650721570       -3.1612739735
 C          3.2290222940       -1.5841291713       -2.8343223153
 C          3.3228294644       -0.8944361334       -1.5975371138
 C          4.6120783093       -0.6241676598       -1.1100410992
 C          5.2480673291       -0.0040662731        0.0016458841
 C          6.5941000025       -0.1146327757       -0.1927399379
 N          6.8483509519       -0.7673272981       -1.3596660206
 C          5.6674536955       -1.0929011840       -1.9465305453
 N          5.5773419926       -1.7417919447       -3.1103789550
 C          4.3616541253       -1.9835359184       -3.5479567310
 H          3.1286808889        1.4458097642       -0.1830924139
 H          1.5773812149        2.0091680717       -0.8039045095
 H          2.3201139362        3.0990935727        1.3520057520
 H          0.7226415203        2.3307786582        1.4757413460
 H          2.3181291970       -0.4657568848        3.3496086012
 H          0.7211466564        0.0411895624        2.7568139737
 H          1.5783178297       -1.7355064997        1.2929624903
 H          3.1289457770       -0.9105015095        1.1376017504
 H          0.1788222005       -1.2118716480       -2.1700736112
 H          4.8038405324        0.4723916247        0.8529513666
 H          7.3874855986        0.2356843691        0.4365801415
 H          4.2728035168       -2.5059128670       -4.4881578430
 H          7.7534387904       -0.9822905190       -1.7429772462
 H         -0.4128296749       -1.0008540664       -0.0207197493
 H         -0.3720844661        0.5275656504        0.8752795258
 H         -0.3475666253        0.5418494185       -0.8755754449
 H          2.9379850621        3.5070628285        4.2637978821
 H          4.4148593456        2.8076582279        5.0004000537
 H          2.8319061720        1.9994763893        5.1973081193
  42
    -7.349078 !GC
 C          0.0000000000        0.0000000000        0.0000000000
 C          1.5296860726        0.0000000000        0.0000000000
 C          2.0530884055        1.4471356917        0.0000000000
 C          1.7633555035        2.1567450627        1.3247873698
 N          2.2549045891        1.4162663301        2.4665084361
 C          1.7958819235        0.0466808953        2.5520049141
 C          2.0545293484       -0.7346613033        1.2624706760
 S          3.7600519087        1.7860498392        3.0518195177
 O          4.4794614702        0.5681688846        3.3751400010
 O          4.4334304027        2.7009002972        2.1494243167
 C          3.3865545946        2.6537238988        4.5734330782
 N          2.0224687496       -0.6736906431       -1.2046087724
 C          1.2470069520       -1.2090781433       -2.1933495927
 N          1.9063729786       -1.7668969828       -3.1598886430
 C          3.2266152708       -1.6097547495       -2.8222960795
 C          3.3229497410       -0.9220506813       -1.5844535816
 C          4.6130210938       -0.6766641782       -1.0859807780
 C          5.2516893063       -0.0667330224        0.0299296502
 C          6.5967321591       -0.2062240344       -0.1514339755
 N          6.8481497616       -0.8663242982       -1.3147182140
 C          5.6662691577       -1.1694249985       -1.9114797895
 N          5.5736233899       -1.8197059495       -3.0744570979
 C          4.3571276282       -2.0374637029       -3.5226549827
 H          3.1304814396        1.4438271323       -0.1640130829
 H          1.5911408785        2.0049662921       -0.8158094743
 H          2.2662223860        3.1229195332        1.3338223635
 H          0.6903004434        2.3104388785        1.4602974413
 H          2.3409486949       -0.4199889519        3.3718894767
 H          0.7305833264        0.0616705000        2.7938657316
 H          1.5756894623       -1.7126310073        1.3301866643
 H          3.1284285120       -0.8920792709        1.1641863562
 H          0.1783410084       -1.1784496880       -2.1841806014
 H          4.8103866280        0.4206940414        0.8764973176
 H          7.3914094816        0.1282013141        0.4849051436
 H          4.2664794547       -2.5621428284       -4.4614020473
 H          7.7520806145       -1.1020414533       -1.6882725507
 H         -0.3920234935        0.4708445114        0.8989678114
 H         -0.3882808914        0.5132736704       -0.8732163713
 H         -0.3530534323       -1.0254567831       -0.0147862785
 H          4.3269653124        2.9290917187        5.0274751612
 H          2.8213655099        1.9715558772        5.1933246679
 H          2.7834856972        3.5179526252        4.3296100450
  42
    -7.269409 !GC
 C          0.0000000000        0.0000000000        0.0000000000
 C          1.5294077511        0.0000000000        0.0000000000
 C          2.0559330843        1.4459027181        0.0000000000
 C          1.8048535716        2.1482078568        1.3371929531
 N          2.2573015629        1.3777348152        2.4767218288
 C          1.7753127145        0.0144790837        2.5289863011
 C          2.0560945603       -0.7542852279        1.2366490139
 S          3.7789182280        1.6985323252        3.0472575976
 O          4.2547359825        0.5361896663        3.7699553753
 O          4.6529598565        2.1869705662        1.9937473472
 C          3.4889083799        3.0232894030        4.2172090079
 N          2.0208286351       -0.6738149742       -1.2049693254
 C          1.2461461783       -1.2279471886       -2.1841771901
 N          1.9066625337       -1.7706984839       -3.1583141379
 C          3.2267010540       -1.5827264929       -2.8366966910
 C          3.3219714411       -0.8895466486       -1.6018231012
 C          4.6119683279       -0.6132570461       -1.1196290319
 C          5.2498459530        0.0100385690       -0.0107979673
 C          6.5955964964       -0.0961017327       -0.2098305229
 N          6.8479152039       -0.7486182633       -1.3772523391
 C          5.6660797561       -1.0788859183       -1.9594603442
 N          5.5745279259       -1.7302397421       -3.1217301031
 C          4.3582612709       -1.9781922454       -3.5542213195
 H          3.1275969815        1.4406559521       -0.1939840971
 H          1.5716512855        2.0107348282       -0.7979279809
 H          2.3510514531        3.0905763149        1.3514654458
 H          0.7405560170        2.3535152843        1.4750705964
 H          2.2912562030       -0.4650318060        3.3605848438
 H          0.7045333723        0.0433836669        2.7429913678
 H          1.5909357610       -1.7395632787        1.2921903600
 H          3.1331314114       -0.8961579960        1.1436311078
 H          0.1774626539       -1.2220372637       -2.1628413392
 H          4.8077809539        0.4866422053        0.8417156295
 H          7.3900603070        0.2575242900        0.4162899072
 H          4.2682019882       -2.5045288640       -4.4920510674
 H          7.7525431057       -0.9610061920       -1.7632296218
 H         -0.4036053940       -1.0054023031       -0.0214688354
 H         -0.3971976025        0.5448711383        0.8509447586
 H         -0.3312002273        0.5020631536       -0.9064358580
 H          4.4473714341        3.2710464534        4.6504990934
 H          2.7848940577        2.6652199631        4.9530723852
 H          3.0837825793        3.8684710988        3.6742408052
  42
    -7.234522 !GC
 C          0.0000000000        0.0000000000        0.0000000000
 C          1.5294673013        0.0000000000        0.0000000000
 C          2.0560450224        1.4458664531        0.0000000000
 C          1.8027145001        2.1488897466        1.3363653397
 N          2.2531893454        1.3792575678        2.4773298394
 C          1.7728985627        0.0153262452        2.5288947934
 C          2.0565646366       -0.7534422493        1.2371165046
 S          3.7734698478        1.7017613998        3.0503977235
 O          4.2402328523        0.5462878572        3.7894579868
 O          4.6551526433        2.1730463966        1.9954668785
 C          3.4836342581        3.0418598217        4.2028027825
 N          2.0202775656       -0.6740341375       -1.2050968442
 C          1.2451863576       -1.2296669402       -2.1831284506
 N          1.9053352913       -1.7756752845       -3.1556698428
 C          3.2255283785       -1.5885312254       -2.8342212697
 C          3.3211693194       -0.8925258038       -1.6011648494
 C          4.6113062272       -0.6157926936       -1.1198209736
 C          5.2493882253        0.0117601163       -0.0135193793
 C          6.5950614173       -0.0958120326       -0.2120339315
 N          6.8471301789       -0.7527024517       -1.3770230996
 C          5.6651790949       -1.0848036832       -1.9581342138
 N          5.5731425864       -1.7395879032       -3.1185265511
 C          4.3565934210       -1.9871205770       -3.5506414428
 H          3.1279325818        1.4404443532       -0.1927637711
 H          1.5726640908        2.0102778898       -0.7987245854
 H          2.3482866594        3.0915868350        1.3511075872
 H          0.7380456463        2.3537716996        1.4722143112
 H          2.2882791635       -0.4631389664        3.3614665860
 H          0.7017842523        0.0426574340        2.7415652433
 H          1.5927845044       -1.7393346615        1.2924720354
 H          3.1338805565       -0.8938168732        1.1450085795
 H          0.1765244709       -1.2222988549       -2.1623064672
 H          4.8072908582        0.4918308967        0.8370412379
 H          7.3896425107        0.2600173390        0.4126639995
 H          4.2661421163       -2.5153237052       -4.4873985535
 H          7.7516165507       -0.9667299158       -1.7623778906
 H         -0.4146328168        0.4988401101        0.8669606687
 H         -0.3658144859        0.4670677076       -0.9139355184
 H         -0.3518161484       -1.0262180190       -0.0001074996
 H          4.4401846250        3.2877573934        4.6407497843
 H          2.7711655903        2.6982527161        4.9370068659
 H          3.0891639862        3.8833509491        3.6466875043
  42
    -7.207005 !GC
 C          0.0000000000        0.0000000000        0.0000000000
 C          1.5294877401        0.0000000000        0.0000000000
 C          2.0557039929        1.4458644573        0.0000000000
 C          1.7995981473        2.1493138813        1.3358297060
 N          2.2466096521        1.3793720191        2.4779824963
 C          1.7704140180        0.0143558316        2.5291310437
 C          2.0574571866       -0.7531359557        1.2375003540
 S          3.7581797741        1.7169291155        3.0637016248
 O          4.2115969698        0.5810694670        3.8401300507
 O          4.6569228352        2.1610170534        2.0108859935
 C          3.4500212122        3.0874050590        4.1750542175
 N          2.0192603758       -0.6748943704       -1.2048440702
 C          1.2441634711       -1.2279897776       -2.1841059856
 N          1.9042254564       -1.7765335193       -3.1553603504
 C          3.2244653100       -1.5935949036       -2.8314255878
 C          3.3201464294       -0.8969148676       -1.5988171951
 C          4.6103393319       -0.6233753194       -1.1154256883
 C          5.2482441873        0.0036910935       -0.0087275430
 C          6.5939919101       -0.1078117548       -0.2049650887
 N          6.8463107114       -0.7669686415       -1.3686004494
 C          5.6643867243       -1.0964989776       -1.9511356019
 N          5.5722345334       -1.7519755093       -3.1111160599
 C          4.3557731661       -1.9966241580       -3.5449582397
 H          3.1278773088        1.4415656041       -0.1909203640
 H          1.5733909242        2.0097741798       -0.7997796445
 H          2.3469773231        3.0910577042        1.3513460458
 H          0.7348141444        2.3558933320        1.4683400204
 H          2.2869436639       -0.4620890933        3.3621053065
 H          0.6990043557        0.0383096979        2.7407279776
 H          1.5965425619       -1.7404671054        1.2918891324
 H          3.1353141865       -0.8904676829        1.1459106901
 H          0.1754055060       -1.2164230643       -2.1650854827
 H          4.8061085116        0.4866585174        0.8400974402
 H          7.3884754564        0.2468957100        0.4206598182
 H          4.2656613142       -2.5261686879       -4.4810602796
 H          7.7506684479       -0.9840844278       -1.7524623759
 H         -0.3968767439       -1.0104999738        0.0157276038
 H         -0.3540944285        0.5441270452        0.8763660545
 H         -0.3815794216        0.5115944297       -0.8725772415
 H          4.3938729940        3.3630515614        4.6258258438
 H          2.7469166609        2.7377351610        4.9168569425
 H          3.0461187830        3.9045040659        3.5953501077
  42
    -7.201441 !GC
 C          0.0000000000        0.0000000000        0.0000000000
 C          1.5297983601        0.0000000000        0.0000000000
 C          2.0563427260        1.4461909116        0.0000000000
 C          1.7725448461        2.1483064021        1.3290593995
 N          2.2571550465        1.3940820617        2.4647288016
 C          1.8049759058        0.0196023546        2.5287907077
 C          2.0558889470       -0.7552862952        1.2321652221
 S          3.7863617537        1.7104011085        3.0189115470
 O          4.6673324766        0.5672094562        2.8467857801
 O          4.2422655605        2.9492583251        2.4222696917
 C          3.5221708076        1.9771460855        4.7700901997
 N          2.0231961640       -0.6762025808       -1.2027233551
 C          1.2519016532       -1.2229063144       -2.1884424748
 N          1.9155039093       -1.7642284347       -3.1613628866
 C          3.2346019284       -1.5823472688       -2.8320330449
 C          3.3255283991       -0.8939234715       -1.5940912026
 C          4.6132085823       -0.6216197473       -1.1039719500
 C          5.2455480963       -0.0024438280        0.0102557413
 C          6.5922073169       -0.1092358344       -0.1821448413
 N          6.8500662418       -0.7576070133       -1.3506884221
 C          5.6710647064       -1.0855135950       -1.9399795463
 N          5.5841471962       -1.7337922460       -3.1044739318
 C          4.3697245102       -1.9787833423       -3.5438080368
 H          3.1337455801        1.4414437660       -0.1686715929
 H          1.5912821785        2.0059462284       -0.8127157504
 H          2.2861846546        3.1091710878        1.3534456850
 H          0.7013351661        2.3125147608        1.4656775385
 H          2.3509891476       -0.4597730201        3.3404792576
 H          0.7405948997        0.0305185605        2.7751447953
 H          1.5700776306       -1.7300351059        1.2974534508
 H          3.1273036754       -0.9198185660        1.1277262015
 H          0.1829723794       -1.2134916385       -2.1723754858
 H          4.7985104377        0.4691231458        0.8627730208
 H          7.3836203264        0.2413765642        0.4494909507
 H          4.2836761959       -2.5005987958       -4.4846416290
 H          7.7562736896       -0.9699138081       -1.7327623521
 H         -0.3695236462        0.4805476423        0.9053428674
 H         -0.3719219696        0.5472148947       -0.8633410472
 H         -0.3915931042       -1.0056910770       -0.0459812779
 H          2.8469706273        2.8122214137        4.8769304068
 H          4.4916318471        2.1730461599        5.2050005592
 H          3.0902852524        1.0754578535        5.1864752797
  42
    -7.181299 !GC
 C          0.0000000000        0.0000000000        0.0000000000
 C          1.5298387331        0.0000000000        0.0000000000
 C          2.0559548337        1.4463349528        0.0000000000
 C          1.7694272944        2.1484075687        1.3284224557
 N          2.2534755027        1.3948385230        2.4647605546
 C          1.8032710943        0.0196894697        2.5286395442
 C          2.0559611606       -0.7550628655        1.2321936740
 S          3.7809882566        1.7139827644        3.0219448324
 O          4.6630993352        0.5709892340        2.8546939451
 O          4.2375339229        2.9518525467        2.4236253518
 C          3.5121749999        1.9846693433        4.7717873440
 N          2.0230243635       -0.6763906627       -1.2026403635
 C          1.2518489919       -1.2206585015       -2.1897849801
 N          1.9155626059       -1.7656334407       -3.1606340358
 C          3.2347020251       -1.5885948371       -2.8283379485
 C          3.3253629155       -0.8994714932       -1.5908843228
 C          4.6129286075       -0.6315079184       -1.0980392586
 C          5.2449022457       -0.0122395920        0.0163291813
 C          6.5916085454       -0.1250306244       -0.1722739576
 N          6.8498953271       -0.7781850877       -1.3380954431
 C          5.6710362776       -1.1022897992       -1.9298679479
 N          5.5843539608       -1.7516545990       -3.0938179796
 C          4.3699864625       -1.9913471138       -3.5363224058
 H          3.1336841322        1.4422870602       -0.1663964682
 H          1.5922572993        2.0056613837       -0.8138006374
 H          2.2816142349        3.1099431832        1.3535719673
 H          0.6978399781        2.3111844950        1.4633274180
 H          2.3500253914       -0.4587426411        3.3403407499
 H          0.7388424563        0.0289752242        2.7751098140
 H          1.5706935090       -1.7301496596        1.2968290710
 H          3.1276024958       -0.9187650731        1.1282633953
 H          0.1829386132       -1.2062356221       -2.1765417544
 H          4.7974798661        0.4642839632        0.8658655331
 H          7.3827979750        0.2243653706        0.4603126847
 H          4.2842299983       -2.5146169879       -4.4763368679
 H          7.7562924882       -0.9950748002       -1.7173140309
 H         -0.3969681811       -1.0096590926       -0.0458683453
 H         -0.3574854665        0.4917249965        0.9053139050
 H         -0.3786652844        0.5618478734       -0.8425447526
 H          2.8368087845        2.8200421604        4.8751157783
 H          4.4804834879        2.1816341143        5.2087220696
 H          3.0792984026        1.0840375497        5.1893931290
  42
    -7.155937 !GC
 C          0.0000000000        0.0000000000        0.0000000000
 C          1.5295349261        0.0000000000        0.0000000000
 C          2.0576708134        1.4457721840        0.0000000000
 C          1.7728230416        2.1500782022        1.3276603787
 N          2.2500501454        1.3962323093        2.4666361943
 C          1.7994573400        0.0213117731        2.5299036972
 C          2.0558152048       -0.7547377455        1.2349672929
 S          3.7683516118        1.7175731422        3.0452603007
 O          4.6580148386        0.5795866208        2.8820621552
 O          4.2261629844        2.9623217702        2.4624655497
 C          3.4773802124        1.9744610727        4.7937710601
 N          2.0208039189       -0.6762010576       -1.2036192838
 C          1.2471698820       -1.2247269245       -2.1867110882
 N          1.9088967627       -1.7684761496       -3.1595521963
 C          3.2286165828       -1.5870965264       -2.8328536005
 C          3.3223012891       -0.8971060035       -1.5962050823
 C          4.6114872050       -0.6257577750       -1.1091437450
 C          5.2471634956       -0.0054248853        0.0025596801
 C          6.5932022017       -0.1108874117       -0.1943988978
 N          6.8477743826       -0.7600198425       -1.3631602491
 C          5.6670159862       -1.0905247722       -1.9477053545
 N          5.5770407816       -1.7404352997       -3.1110555861
 C          4.3613944420       -1.9856515170       -3.5469776591
 H          3.1351678473        1.4396044185       -0.1671789093
 H          1.5947558438        2.0056966989       -0.8139568099
 H          2.2899728267        3.1090595758        1.3526886059
 H          0.7017506430        2.3192608649        1.4597938800
 H          2.3435345508       -0.4566026309        3.3436534860
 H          0.7341862685        0.0305112483        2.7730700223
 H          1.5729890225       -1.7308801835        1.3007225437
 H          3.1279201818       -0.9159772439        1.1326006397
 H          0.1783817020       -1.2143793997       -2.1690769250
 H          4.8034250306        0.4671046489        0.8563806723
 H          7.3865690124        0.2407721957        0.4343421723
 H          4.2731585718       -2.5101215226       -4.4860981799
 H          7.7535643823       -0.9689812361       -1.7486891955
 H         -0.4146225156       -0.9995519335       -0.0390678205
 H         -0.3743149722        0.5140942642        0.8822525071
 H         -0.3436617523        0.5567674085       -0.8680895508
 H          2.7915867186        2.8053988703        4.8942479863
 H          4.4288855999        2.1873596715        5.2573033145
 H          3.0377980610        1.0656532638        5.1822703964
  42
    -7.150098 !GC
 C          0.0000000000        0.0000000000        0.0000000000
 C          1.5295669722        0.0000000000        0.0000000000
 C          2.0556903029        1.4458494023        0.0000000000
 C          1.7977569713        2.1491725767        1.3356044245
 N          2.2430401897        1.3796285919        2.4787630484
 C          1.7674275755        0.0143350299        2.5290534790
 C          2.0574563266       -0.7526515280        1.2378413888
 S          3.7542387459        1.7166627697        3.0664457872
 O          4.2064739684        0.5803202193        3.8427213568
 O          4.6547296715        2.1605626181        2.0151304443
 C          3.4442069741        3.0862395207        4.1782239414
 N          2.0188940470       -0.6752965979       -1.2047131915
 C          1.2442823974       -1.2299566212       -2.1833796105
 N          1.9049024249       -1.7820229236       -3.1523358041
 C          3.2249944307       -1.6000356865       -2.8271837016
 C          3.3198485924       -0.9001429197       -1.5965784655
 C          4.6096185858       -0.6262814087       -1.1123133254
 C          5.2464766899        0.0041680449       -0.0070228541
 C          6.5923889902       -0.1092924979       -0.2009876310
 N          6.8457317986       -0.7736217704       -1.3614736617
 C          5.6642835665       -1.1035867402       -1.9448167370
 N          5.5728318946       -1.7631229491       -3.1025708691
 C          4.3566860775       -2.0071338105       -3.5377054345
 H          3.1280346659        1.4414902837       -0.1899790615
 H          1.5741710686        2.0096759563       -0.8003577114
 H          2.3449295197        3.0910381893        1.3518665234
 H          0.7326712699        2.3554490661        1.4663015560
 H          2.2824682432       -0.4618774240        3.3630671627
 H          0.6956127185        0.0377281455        2.7386292826
 H          1.5986279279       -1.7409564039        1.2914554893
 H          3.1357265719       -0.8876332021        1.1476357487
 H          0.1755003484       -1.2167077345       -2.1659548749
 H          4.8039547691        0.4906487436        0.8395418649
 H          7.3863480354        0.2469374649        0.4244116602
 H          4.2673250188       -2.5395787046       -4.4722230113
 H          7.7503948574       -0.9917423513       -1.7438538343
 H         -0.3656876041        0.5228578466        0.8832488692
 H         -0.3745293703        0.5066806514       -0.8863273911
 H         -0.3926940327       -1.0061458504        0.0028799016
 H          4.3893985881        3.3708126967        4.6211098800
 H          2.7498925403        2.7312722499        4.9261237764
 H          3.0281851060        3.8987800560        3.6004330218
  42
    -7.134100 !GC
 C          0.0000000000        0.0000000000        0.0000000000
 C          1.5298836481        0.0000000000        0.0000000000
 C          2.0567577900        1.4461822518        0.0000000000
 C          1.7693853697        2.1480026763        1.3282890961
 N          2.2539593972        1.3949757771        2.4646249815
 C          1.8043170993        0.0196106694        2.5288320936
 C          2.0555189855       -0.7552627462        1.2321513693
 S          3.7824387483        1.7102119069        3.0217333601
 O          4.6796265368        0.5868071720        2.8053020773
 O          4.2161039697        2.9755184086        2.4658200016
 C          3.5248633589        1.9118767922        4.7824876758
 N          2.0230198564       -0.6764703031       -1.2025363598
 C          1.2519885863       -1.2224786633       -2.1886946676
 N          1.9158347576       -1.7655619075       -3.1605414220
 C          3.2349286043       -1.5849901402       -2.8300119489
 C          3.3254192388       -0.8962330377       -1.5923317170
 C          4.6128806369       -0.6250449682       -1.1009138359
 C          5.2446613086       -0.0051648158        0.0132272139
 C          6.5914226188       -0.1125964782       -0.1781806555
 N          6.8499009623       -0.7617424426       -1.3461591577
 C          5.6711176174       -1.0900583108       -1.9357515800
 N          5.5846583610       -1.7381953525       -3.1003510863
 C          4.3703924881       -1.9826794187       -3.5404935767
 H          3.1347211559        1.4415847175       -0.1657735970
 H          1.5937567805        2.0058231358       -0.8139488813
 H          2.2809678705        3.1098349814        1.3540337351
 H          0.6976666970        2.3099523468        1.4630930733
 H          2.3516572422       -0.4592922607        3.3398132616
 H          0.7400952678        0.0285115925        2.7762447205
 H          1.5694081022       -1.7298569190        1.2972799326
 H          3.1268341737       -0.9199115082        1.1276772791
 H          0.1830143856       -1.2112938874       -2.1736706540
 H          4.7972050465        0.4671128279        0.8651377733
 H          7.3825920374        0.2382610161        0.4536291010
 H          4.2849326182       -2.5056731511       -4.4806677095
 H          7.7565032154       -0.9738123880       -1.7275975960
 H         -0.4135118986        0.4427281879        0.8976455630
 H         -0.3695022256        0.5223302184       -0.8820766591
 H         -0.3500162253       -1.0251294421       -0.0626936942
 H          2.8448908816        2.7381534654        4.9227288942
 H          4.4946812687        2.0978462772        5.2209765520
 H          3.1003965959        0.9925277139        5.1666719318
  42
    -7.108659 !GC
 C          0.0000000000        0.0000000000        0.0000000000
 C          1.5298238455        0.0000000000        0.0000000000
 C          2.0564803984        1.4461493891        0.0000000000
 C          1.7692810310        2.1482928227        1.3280212666
 N          2.2563922508        1.3956816502        2.4635471781
 C          1.8071775379        0.0201687411        2.5287123755
 C          2.0557698152       -0.7555411347        1.2318616804
 S          3.7861920162        1.7114517107        3.0167085723
 O          4.6891609152        0.5962719448        2.7814814351
 O          4.2091129920        2.9861461507        2.4744416846
 C          3.5375508091        1.8898070446        4.7814194697
 N          2.0230993516       -0.6757660001       -1.2029483229
 C          1.2515377723       -1.2199778013       -2.1897567048
 N          1.9147378795       -1.7630884075       -3.1619898131
 C          3.2339939517       -1.5843843963       -2.8311436435
 C          3.3253245223       -0.8967516579       -1.5928972955
 C          4.6132230639       -0.6284882853       -1.1009967514
 C          5.2458364646       -0.0110198190        0.0139686146
 C          6.5924367989       -0.1215220587       -0.1767018291
 N          6.8501021601       -0.7709353855       -1.3447003114
 C          5.6709039025       -1.0958116805       -1.9353093387
 N          5.5835582335       -1.7428479565       -3.1005057162
 C          4.3689171435       -1.9839680548       -3.5414742409
 H          3.1345207009        1.4411375620       -0.1655242276
 H          1.5938664111        2.0054884082       -0.8144160394
 H          2.2798939003        3.1107058643        1.3533219840
 H          0.6974980239        2.3089433645        1.4639777993
 H          2.3561870466       -0.4585977519        3.3386244997
 H          0.7434700513        0.0291138461        2.7782199895
 H          1.5680681655       -1.7293119223        1.2980662749
 H          3.1267350657       -0.9220026154        1.1265650936
 H          0.1825951571       -1.2072913848       -2.1752959882
 H          4.7989054405        0.4621163657        0.8656213140
 H          7.3842202732        0.2268568366        0.4558538217
 H          4.2825591794       -2.5067086994       -4.4817421058
 H          7.7562449623       -0.9855766893       -1.7258063851
 H         -0.3691911804        0.4759059250        0.9078886971
 H         -0.3720955899        0.5520701800       -0.8599224878
 H         -0.3920087327       -1.0052381189       -0.0515454768
 H          2.8663236759        2.7251514630        4.9194604295
 H          4.5029792153        2.0814559242        5.2306858655
 H          3.1137368501        0.9692053764        5.1558996632
  42
    -7.106487 !GC
 C          0.0000000000        0.0000000000        0.0000000000
 C          1.5294430775        0.0000000000        0.0000000000
 C          2.0558384653        1.4458235518        0.0000000000
 C          1.8053689693        2.1490187007        1.3372850527
 N          2.2496279754        1.3772432202        2.4796149964
 C          1.7668312674        0.0144460887        2.5291228585
 C          2.0571063577       -0.7528957619        1.2384147881
 S          3.7657936238        1.7074282468        3.0584276105
 O          4.1670468181        0.6116497820        3.9155642766
 O          4.6955033681        2.0480310763        1.9934234062
 C          3.4919084684        3.1591187688        4.0712859305
 N          2.0193223014       -0.6751806306       -1.2047568128
 C          1.2444629881       -1.2314194111       -2.1825522686
 N          1.9049024948       -1.7785313023       -3.1543522480
 C          3.2250789552       -1.5915114281       -2.8324377480
 C          3.3202735634       -0.8941730076       -1.6000357238
 C          4.6102037716       -0.6168981083       -1.1182587914
 C          5.2476043884        0.0119170183       -0.0122190558
 C          6.5934182654       -0.0951848327       -0.2102860380
 N          6.8462021205       -0.7542230413       -1.3738662885
 C          5.6645692648       -1.0871889768       -1.9552052114
 N          5.5729920534       -1.7434740639       -3.1148310630
 C          4.3566420607       -1.9917087115       -3.5471768206
 H          3.1269507962        1.4411426862       -0.1955006772
 H          1.5702255755        2.0107493107       -0.7970503221
 H          2.3557626507        3.0889190794        1.3516815665
 H          0.7415521321        2.3597387044        1.4714105775
 H          2.2775240750       -0.4633293652        3.3649940114
 H          0.6946427597        0.0433978312        2.7359562546
 H          1.5983522857       -1.7412080005        1.2918563214
 H          3.1355127967       -0.8878871897        1.1482778467
 H          0.1757354007       -1.2229268955       -2.1621804894
 H          4.8052162005        0.4932191411        0.8374786065
 H          7.3873755129        0.2623057855        0.4142849575
 H          4.2668408331       -2.5201441007       -4.4838900472
 H          7.7508171639       -0.9685820303       -1.7585879926
 H         -0.3974834273       -1.0102159991        0.0192411947
 H         -0.3538777498        0.5474182043        0.8743946654
 H         -0.3810921552        0.5086674691       -0.8744596306
 H          4.4326855106        3.4241462353        4.5287100587
 H          2.7477681857        2.9023416692        4.8135292573
 H          3.1285036621        3.9425318846        3.4202582268
  42
    -7.089723 !GC
 C          0.0000000000        0.0000000000        0.0000000000
 C          1.5298866760        0.0000000000        0.0000000000
 C          2.0572183535        1.4460326697        0.0000000000
 C          1.7686301397        2.1492640560        1.3271890173
 N          2.2499703463        1.3970858200        2.4654866856
 C          1.8016275311        0.0211423674        2.5295432099
 C          2.0546812213       -0.7540555203        1.2333718925
 S          3.7774031251        1.7129578874        3.0259374127
 O          4.6787378915        0.5944979212        2.8024159164
 O          4.2071742656        2.9831079912        2.4786128033
 C          3.5170854424        1.9030765743        4.7875217292
 N          2.0229806461       -0.6769360951       -1.2023994763
 C          1.2513527233       -1.2251422117       -2.1869004830
 N          1.9145627221       -1.7687994257       -3.1588684042
 C          3.2337747883       -1.5861847731       -2.8303223480
 C          3.3252110151       -0.8957854326       -1.5936655696
 C          4.6131947000       -0.6223537378       -1.1047230029
 C          5.2464025482       -0.0003279553        0.0074541003
 C          6.5929527917       -0.1066310411       -0.1861942450
 N          6.8499902413       -0.7561843337       -1.3541869461
 C          5.6705155509       -1.0863722832       -1.9412849842
 N          5.5830557228       -1.7366409665       -3.1046011157
 C          4.3684398062       -1.9836921117       -3.5422354739
 H          3.1353253025        1.4407397862       -0.1651066496
 H          1.5948228824        2.0052770618       -0.8144994907
 H          2.2818260332        3.1102930005        1.3529175778
 H          0.6969264127        2.3134245014        1.4599102831
 H          2.3485624759       -0.4567311078        3.3414309432
 H          0.7371887370        0.0290344687        2.7757708570
 H          1.5691233026       -1.7288919894        1.2989972568
 H          3.1261585372       -0.9181498406        1.1300016657
 H          0.1824260372       -1.2148871806       -2.1706811411
 H          4.8002461216        0.4727803012        0.8595959621
 H          7.3847490580        0.2460356805        0.4438268390
 H          4.2819854787       -2.5075396310       -4.4818101490
 H          7.7560384047       -0.9675219737       -1.7371927402
 H         -0.4008478951       -1.0045447882       -0.0704587466
 H         -0.3972546649        0.5000942813        0.8783211960
 H         -0.3344974088        0.5454063207       -0.8796551837
 H          2.8314500490        2.7234827052        4.9326794552
 H          4.4853369910        2.0929055057        5.2274392523
 H          3.0989762700        0.9789179219        5.1665617796
  42
    -7.084487 !GC
 C          0.0000000000        0.0000000000        0.0000000000
 C          1.5294849645        0.0000000000        0.0000000000
 C          2.0556750161        1.4459769705        0.0000000000
 C          1.7978794783        2.1493579588        1.3353763598
 N          2.2467407378        1.3805754685        2.4773730280
 C          1.7713114893        0.0150647208        2.5289607614
 C          2.0568507321       -0.7529818662        1.2371929358
 S          3.7608764140        1.7124545536        3.0605248209
 O          4.2438084421        0.5510131387        3.7798790458
 O          4.6359839041        2.2162638866        2.0153667606
 C          3.4478398567        3.0267710957        4.2362718858
 N          2.0195778634       -0.6749671572       -1.2047146406
 C          1.2445846607       -1.2301815648       -2.1829680996
 N          1.9048591352       -1.7798446571       -3.1534379839
 C          3.2250388503       -1.5955510515       -2.8301529021
 C          3.3205104070       -0.8970720025       -1.5985749059
 C          4.6106053310       -0.6215497785       -1.1162408083
 C          5.2485797584        0.0078681178       -0.0109072872
 C          6.5943199728       -0.1022666210       -0.2079016620
 N          6.8465117312       -0.7630914240       -1.3706744559
 C          5.6645629850       -1.0947431393       -1.9519915691
 N          5.5725829724       -1.7527523288       -3.1105289530
 C          4.3561845169       -1.9988725295       -3.5437032252
 H          3.1281891089        1.4414869138       -0.1896294611
 H          1.5743200616        2.0096737605       -0.8004526517
 H          2.3430822249        3.0923024348        1.3512224466
 H          0.7327295015        2.3534707406        1.4682233625
 H          2.2888386928       -0.4617784918        3.3611420255
 H          0.7001470773        0.0385726512        2.7420454121
 H          1.5945858350       -1.7396230295        1.2920741334
 H          3.1343710647       -0.8917814413        1.1454183160
 H          0.1759016886       -1.2192089036       -2.1638210027
 H          4.8064942816        0.4909451915        0.8379741843
 H          7.3887557220        0.2541065774        0.4166888570
 H          4.2660258724       -2.5299170472       -4.4788807519
 H          7.7510169942       -0.9793852898       -1.7547820232
 H         -0.4040775982       -1.0053238096       -0.0205473150
 H         -0.3972252418        0.5458010785        0.8503446988
 H         -0.3307286188        0.5015627370       -0.9069358296
 H          3.0107031777        3.8536176378        3.6925780964
 H          4.4059087726        3.2855642624        4.6605331996
 H          2.7609600431        2.6657825666        4.9897191865
  42
    -7.076617 !GC
 C          0.0000000000        0.0000000000        0.0000000000
 C          1.5294748712        0.0000000000        0.0000000000
 C          2.0558695394        1.4459298846        0.0000000000
 C          1.7997479547        2.1490212520        1.3357809123
 N          2.2510423287        1.3797348426        2.4764135473
 C          1.7744308195        0.0147437928        2.5289127923
 C          2.0567966489       -0.7537138403        1.2366671440
 S          3.7664175650        1.7107425770        3.0566788580
 O          4.2561849699        0.5449874160        3.7643864779
 O          4.6356157581        2.2260806804        2.0122452311
 C          3.4543565417        3.0150086168        4.2437307146
 N          2.0200847279       -0.6746606548       -1.2047468081
 C          1.2452625279       -1.2283206835       -2.1840407981
 N          1.9056677411       -1.7737309724       -3.1567864614
 C          3.2257895782       -1.5879311464       -2.8341363729
 C          3.3211570603       -0.8931788933       -1.6002522277
 C          4.6111355109       -0.6175181613       -1.1177049054
 C          5.2489178878        0.0079241956       -0.0100274838
 C          6.5947103216       -0.0995675706       -0.2082696299
 N          6.8471136986       -0.7548576428       -1.3741126594
 C          5.6652719772       -1.0857492069       -1.9560525068
 N          5.5736036128       -1.7393894502       -3.1170595345
 C          4.3573091242       -1.9865505205       -3.5499475478
 H          3.1282471668        1.4415299091       -0.1904912483
 H          1.5738894417        2.0098520875       -0.7999147711
 H          2.3446776517        3.0921503087        1.3511549046
 H          0.7347308293        2.3525348824        1.4705608300
 H          2.2931646623       -0.4628435997        3.3598688660
 H          0.7037157135        0.0393336603        2.7440755000
 H          1.5922349477       -1.7392461454        1.2921795680
 H          3.1338790057       -0.8950852828        1.1437560230
 H          0.1765839158       -1.2198564509       -2.1636433676
 H          4.8068015341        0.4867778811        0.8412211504
 H          7.3891093690        0.2551646800        0.4173095672
 H          4.2673201205       -2.5142886310       -4.4870251733
 H          7.7516641678       -0.9687720731       -1.7594634369
 H         -0.4144658625        0.4962779988        0.8685428881
 H         -0.3656564098        0.4697760985       -0.9126976458
 H         -0.3519032291       -1.0262394327       -0.0030343076
 H          3.0160393207        3.8461030987        3.7078868748
 H          4.4123009225        3.2711022275        4.6693622688
 H          2.7685603939        2.6469086582        4.9945510346
  42
    -7.045831 !GC
 C          0.0000000000        0.0000000000        0.0000000000
 C          1.5295529678        0.0000000000        0.0000000000
 C          2.0551434392        1.4457863850        0.0000000000
 C          1.8008641340        2.1467858355        1.3361711301
 N          2.2803916416        1.3835390213        2.4705694584
 C          1.7857809452        0.0235835819        2.5466581123
 C          2.0340572491       -0.7743433139        1.2655671014
 S          3.8572629171        1.6330731737        2.9304766775
 O          4.4287499221        0.3884133816        3.4079211901
 O          4.5840394882        2.2905198433        1.8597650138
 C          3.7064383062        2.7661644940        4.3112785191
 N          2.0217271224       -0.6765733442       -1.2030578156
 C          1.2483315102       -1.2230107012       -2.1874029155
 N          1.9099589723       -1.7728805485       -3.1568835772
 C          3.2297564340       -1.5978887964       -2.8261856852
 C          3.3232600400       -0.9042973215       -1.5915846454
 C          4.6121945388       -0.6370124482       -1.1018983245
 C          5.2474312480       -0.0135404874        0.0082766689
 C          6.5935420866       -0.1303336219       -0.1818188817
 N          6.8484130951       -0.7892689254       -1.3449441797
 C          5.6679579293       -1.1141280677       -1.9332373008
 N          5.5783461602       -1.7694054772       -3.0937711904
 C          4.3627106388       -2.0065908174       -3.5341853345
 H          3.1282876808        1.4457107361       -0.1896337856
 H          1.5732676926        2.0091808943       -0.8004759298
 H          2.3322277734        3.0976898979        1.3515275940
 H          0.7328853983        2.3246382076        1.4799181011
 H          2.3096865726       -0.4516138665        3.3756236612
 H          0.7187033483        0.0695130699        2.7774853896
 H          1.5407239087       -1.7443912042        1.3426193568
 H          3.1055664442       -0.9499468883        1.1718008132
 H          0.1794519893       -1.2059894881       -2.1730861722
 H          4.8031998483        0.4703897916        0.8553265401
 H          7.3866808973        0.2200023464        0.4478373652
 H          4.2740828583       -2.5353135559       -4.4708225875
 H          7.7537286396       -1.0116931959       -1.7234003027
 H         -0.3915484449       -1.0134848882       -0.0140021338
 H         -0.3667436807        0.5026706981        0.8939688938
 H         -0.3745733172        0.5225472536       -0.8696381546
 H          3.4936756275        3.7597736340        3.9427777692
 H          4.6693593442        2.7433042218        4.8051384428
 H          2.9258731741        2.3895821521        4.9564786425
  42
    -7.036605 !GC
 C          0.0000000000        0.0000000000        0.0000000000
 C          1.5294763852        0.0000000000        0.0000000000
 C          2.0557205961        1.4458383046        0.0000000000
 C          1.8038364328        2.1490645181        1.3369307155
 N          2.2490188035        1.3779471827        2.4793210101
 C          1.7675237669        0.0147072755        2.5292252750
 C          2.0569118188       -0.7529654405        1.2383727457
 S          3.7644193568        1.7106103244        3.0586386500
 O          4.1665341897        0.6159067469        3.9167785159
 O          4.6939604704        2.0519866652        1.9937504213
 C          3.4882115030        3.1627504188        4.0702214186
 N          2.0196506149       -0.6750250225       -1.2047108203
 C          1.2449136067       -1.2287685331       -2.1840387353
 N          1.9054659041       -1.7774644244       -3.1548718755
 C          3.2255955282       -1.5947822267       -2.8303634430
 C          3.3206251361       -0.8975498412       -1.5979588724
 C          4.6105039986       -0.6239767247       -1.1139847250
 C          5.2476866617        0.0040159103       -0.0073860066
 C          6.5935356559       -0.1083473526       -0.2022403776
 N          6.8465430889       -0.7696404350       -1.3645525278
 C          5.6649806929       -1.0988406556       -1.9482253264
 N          5.5735288819       -1.7554785243       -3.1076904169
 C          4.3571878830       -1.9993946094       -3.5425634623
 H          3.1270299216        1.4414046888       -0.1943109984
 H          1.5708437054        2.0103529615       -0.7977896724
 H          2.3529013514        3.0897511973        1.3511667878
 H          0.7396949737        2.3582801476        1.4707226602
 H          2.2793921622       -0.4626339500        3.3646404490
 H          0.6955075702        0.0428260333        2.7372432653
 H          1.5970840709       -1.7408454805        1.2919427289
 H          3.1351654804       -0.8889205408        1.1477964754
 H          0.1761906520       -1.2169301566       -2.1658158908
 H          4.8049489913        0.4883703961        0.8403945971
 H          7.3874369069        0.2468883467        0.4237033361
 H          4.2673606451       -2.5278251936       -4.4792850457
 H          7.7512060752       -0.9874310377       -1.7473418315
 H         -0.3661358696        0.5268503579        0.8807801584
 H         -0.3745081129        0.5022181150       -0.8890162515
 H         -0.3920352768       -1.0064664260        0.0078111924
 H          4.4317674375        3.4384150379        4.5153703368
 H          2.7556806005        2.9013321813        4.8222475197
 H          3.1096182750        3.9404825169        3.4211239101
  42
    -7.024053 !GC
 C          0.0000000000        0.0000000000        0.0000000000
 C          1.5298011357        0.0000000000        0.0000000000
 C          2.0567909591        1.4460875971        0.0000000000
 C          1.7696605242        2.1482770690        1.3280484459
 N          2.2561280470        1.3961034365        2.4642403288
 C          1.8070908554        0.0203309589        2.5285371988
 C          2.0561550698       -0.7554214774        1.2318451332
 S          3.7873953489        1.7105994670        3.0139960714
 O          4.7041370846        0.6172019832        2.7329603923
 O          4.1867408392        3.0078131503        2.5089461366
 C          3.5556699492        1.8286894295        4.7861361484
 N          2.0224236758       -0.6759308600       -1.2031128138
 C          1.2503847070       -1.2221817485       -2.1883284036
 N          1.9130975695       -1.7666552546       -3.1601609798
 C          3.2325037999       -1.5867646321       -2.8306703491
 C          3.3244120304       -0.8973810973       -1.5935485937
 C          4.6125596847       -0.6275080200       -1.1032388939
 C          5.2459281582       -0.0076101970        0.0099399708
 C          6.5923933462       -0.1172941684       -0.1820480693
 N          6.8492753941       -0.7675714449       -1.3496854308
 C          5.6697176105       -1.0948894025       -1.9382276792
 N          5.5816762245       -1.7437846042       -3.1022983566
 C          4.3667967401       -1.9864634533       -3.5417487143
 H          3.1348076164        1.4402707073       -0.1657116411
 H          1.5942836777        2.0056522750       -0.8143446130
 H          2.2804102858        3.1106452004        1.3539713822
 H          0.6979194553        2.3094979017        1.4638022647
 H          2.3546533656       -0.4590581155        3.3388969346
 H          0.7431486818        0.0295438549        2.7770479126
 H          1.5688164953       -1.7292865366        1.2982220146
 H          3.1270908315       -0.9213833007        1.1261053658
 H          0.1814743708       -1.2099659948       -2.1729171809
 H          4.7997193078        0.4662064454        0.8615949519
 H          7.3845649228        0.2328133138        0.4490335099
 H          4.2798596736       -2.5107374961       -4.4810997577
 H          7.7551212475       -0.9812690910       -1.7318875976
 H         -0.3967476443       -1.0099552122       -0.0392192914
 H         -0.3576184013        0.4971633734        0.9022478545
 H         -0.3789069249        0.5564630422       -0.8459571993
 H          2.8629885276        2.6398764811        4.9571368930
 H          4.5212432732        2.0353819120        5.2281871432
 H          3.1645565913        0.8860327397        5.1398165350
  42
    -7.020953 !GC
 C          0.0000000000        0.0000000000        0.0000000000
 C          1.5297852388        0.0000000000        0.0000000000
 C          2.0563435786        1.4462056955        0.0000000000
 C          1.7722816639        2.1481702207        1.3289845752
 N          2.2576567485        1.3939944605        2.4643595541
 C          1.8053631117        0.0195574486        2.5285576013
 C          2.0557536040       -0.7555590612        1.2319076971
 S          3.7874647259        1.7104232580        3.0169370615
 O          4.6688387948        0.5679134436        2.8423117640
 O          4.2419531721        2.9502210350        2.4210629790
 C          3.5257002397        1.9751609241        4.7688054771
 N          2.0232544636       -0.6762740000       -1.2026302224
 C          1.2520420449       -1.2214608056       -2.1892714805
 N          1.9157099083       -1.7627158694       -3.1622220981
 C          3.2348718367       -1.5818642542       -2.8320966404
 C          3.3256409292       -0.8947922075       -1.5933451703
 C          4.6132348751       -0.6246200994       -1.1017899821
 C          5.2452488167       -0.0075398419        0.0137819496
 C          6.5919721867       -0.1151851936       -0.1777062353
 N          6.8502459080       -0.7628946209       -1.3465524920
 C          5.6713541339       -1.0891715933       -1.9371071316
 N          5.5846995458       -1.7354994870       -3.1027827267
 C          4.3702773392       -1.9789785821       -3.5431432384
 H          3.1338234138        1.4416957047       -0.1680547190
 H          1.5916286727        2.0060605968       -0.8128540023
 H          2.2851323879        3.1093866060        1.3535577327
 H          0.7010001989        2.3115416700        1.4656538268
 H          2.3519015462       -0.4599037909        3.3397747848
 H          0.7411439530        0.0306617438        2.7758714526
 H          1.5690685891       -1.7298779298        1.2971401699
 H          3.1270558035       -0.9208715433        1.1270735249
 H          0.1831177802       -1.2106869947       -2.1740141705
 H          4.7978854332        0.4638000188        0.8662676040
 H          7.3831860047        0.2340960719        0.4549397596
 H          4.2843619464       -2.5000762337       -4.4843288620
 H          7.7566553235       -0.9754628198       -1.7282044315
 H         -0.3694750553        0.4778882957        0.9067962105
 H         -0.3718574484        0.5498709934       -0.8615088952
 H         -0.3916154038       -1.0055347792       -0.0491313391
 H          4.4979617185        2.1795435318        5.1902814942
 H          3.0926099219        1.0703107863        5.1741849811
 H          2.8488009283        2.8085807119        4.8997688203
  42
    -7.018367 !GC
 C          0.0000000000        0.0000000000        0.0000000000
 C          1.5295961165        0.0000000000        0.0000000000
 C          2.0550855062        1.4459044769        0.0000000000
 C          1.7978251228        2.1482906117        1.3349242834
 N          2.2762299286        1.3868241403        2.4708592740
 C          1.7842961869        0.0260844703        2.5468695873
 C          2.0357182252       -0.7706930771        1.2656682977
 S          3.8491456645        1.6437225074        2.9392876782
 O          4.4279406936        0.3994493220        3.4089574875
 O          4.5758487829        2.3159193879        1.8777500975
 C          3.6828301104        2.7640571655        4.3287948847
 N          2.0216026198       -0.6765408370       -1.2031262285
 C          1.2481300703       -1.2242220078       -2.1867025078
 N          1.9097290134       -1.7710565493       -3.1579192398
 C          3.2295672175       -1.5922372177       -2.8294863588
 C          3.3231725064       -0.9001874373       -1.5940281465
 C          4.6121953986       -0.6296935552       -1.1062541938
 C          5.2475705239       -0.0066557181        0.0040975838
 C          6.5937223655       -0.1174864874       -0.1895449067
 N          6.8485189173       -0.7725829970       -1.3548811828
 C          5.6679565776       -1.1006440201       -1.9411907379
 N          5.5782570588       -1.7539469690       -3.1027869671
 C          4.3625767073       -1.9956219800       -3.5406396644
 H          3.1287311130        1.4455203594       -0.1870769917
 H          1.5752784986        2.0085552091       -0.8022463293
 H          2.3283398051        3.0997017793        1.3499198133
 H          0.7295118429        2.3256842255        1.4770537085
 H          2.3082374243       -0.4482816816        3.3762660792
 H          0.7168561050        0.0698557629        2.7764223606
 H          1.5444409624       -1.7418418002        1.3419076553
 H          3.1076921277       -0.9438908519        1.1728255788
 H          0.1792332918       -1.2106704676       -2.1704740536
 H          4.8033538685        0.4725229333        0.8540084885
 H          7.3869081705        0.2344230943        0.4391636101
 H          4.2739125193       -2.5230381764       -4.4780365312
 H          7.7537611325       -0.9887398793       -1.7371073632
 H         -0.3734973940        0.4884002438        0.8989514985
 H         -0.3784584216        0.5222425170       -0.8745838172
 H         -0.3810642863       -1.0120968713       -0.0022012552
 H          3.4699273724        3.7601447227        3.9672350430
 H          4.6412634167        2.7399868276        4.8312326348
 H          2.8977937202        2.3794852777        4.9637082793
  42
    -7.016926 !GC
 C          0.0000000000        0.0000000000        0.0000000000
 C          1.5295572574        0.0000000000        0.0000000000
 C          2.0548828064        1.4460088457        0.0000000000
 C          1.7947895121        2.1509124434        1.3331377061
 N          2.2735454305        1.3932434294        2.4713747971
 C          1.7843524121        0.0318959576        2.5510064254
 C          2.0371180537       -0.7664821233        1.2711308782
 S          3.8447604798        1.6556075764        2.9420597941
 O          4.4242186281        0.4148609177        3.4201062665
 O          4.5731621168        2.3229174375        1.8786541358
 C          3.6728660562        2.7838505358        4.3246724914
 N          2.0212215037       -0.6770230881       -1.2030014680
 C          1.2474171562       -1.2250931288       -2.1861338742
 N          1.9087314822       -1.7696531232       -3.1587663566
 C          3.2286299906       -1.5883699371       -2.8321709153
 C          3.3226916169       -0.8979608966       -1.5958767965
 C          4.6119547498       -0.6260252980       -1.1095276858
 C          5.2478258376       -0.0043131643        0.0012914087
 C          6.5938846006       -0.1116423799       -0.1949109690
 N          6.8482106865       -0.7638835715       -1.3619748195
 C          5.6673838341       -1.0929113480       -1.9471811701
 N          5.5771724861       -1.7439129610       -3.1099683992
 C          4.3612935045       -1.9878619116       -3.5460222746
 H          3.1290322208        1.4450843709       -0.1842610728
 H          1.5774116342        2.0076666065       -0.8043378220
 H          2.3230951984        3.1035493670        1.3464978168
 H          0.7258551921        2.3255809327        1.4738661080
 H          2.3096988191       -0.4396737085        3.3811429220
 H          0.7169180211        0.0741623820        2.7808890624
 H          1.5470409332       -1.7381120027        1.3489899283
 H          3.1093141655       -0.9383969322        1.1787312899
 H          0.1785055769       -1.2141932945       -2.1682294334
 H          4.8039603619        0.4713721478        0.8533414796
 H          7.3873331213        0.2406369150        0.4332469302
 H          4.2720788944       -2.5130886983       -4.4845998228
 H          7.7533548180       -0.9771716437       -1.7461582749
 H         -0.3666846734       -1.0246705962       -0.0429921310
 H         -0.3967327348        0.5015199092        0.8755241421
 H         -0.3693528731        0.5093553809       -0.8826319340
 H          3.5141891610        3.7870370521        3.9553189038
 H          4.6096811008        2.7211570812        4.8634520049
 H          2.8488316696        2.4326044150        4.9287411921
  42
    -6.998973 !GC
 C          0.0000000000        0.0000000000        0.0000000000
 C          1.5297844818        0.0000000000        0.0000000000
 C          2.0569409757        1.4461505261        0.0000000000
 C          1.7711166272        2.1479568429        1.3282874494
 N          2.2619320316        1.3958192263        2.4622434495
 C          1.8112183582        0.0206169183        2.5285152552
 C          2.0551299577       -0.7563554083        1.2314168181
 S          3.7960056040        1.7030939761        3.0091344405
 O          4.7185455467        0.6238101298        2.6932147921
 O          4.1821060528        3.0162262923        2.5372121110
 C          3.5749348770        1.7706364117        4.7850665164
 N          2.0238188391       -0.6754886606       -1.2029495922
 C          1.2523595958       -1.2228768329       -2.1882154437
 N          1.9157599964       -1.7621029182       -3.1624258552
 C          3.2349634038       -1.5773036819       -2.8348578201
 C          3.3261832209       -0.8908068341       -1.5958577060
 C          4.6139937812       -0.6173543512       -1.1067835247
 C          5.2468909297       -0.0006110704        0.0083885139
 C          6.5934617547       -0.1033749957       -0.1867291318
 N          6.8507981777       -0.7480327687       -1.3574556364
 C          5.6715080262       -1.0770817439       -1.9455230562
 N          5.5843771612       -1.7223990996       -3.1115807104
 C          4.3698443401       -1.9691591885       -3.5495835911
 H          3.1350284413        1.4405866950       -0.1660449547
 H          1.5941882976        2.0058775643       -0.8140242633
 H          2.2801690341        3.1111939226        1.3534070124
 H          0.6994655877        2.3067180935        1.4669744414
 H          2.3614128938       -0.4598181486        3.3365974556
 H          0.7481865258        0.0310778546        2.7809538843
 H          1.5638829634       -1.7281708209        1.2991870197
 H          3.1251548050       -0.9268650838        1.1248002027
 H          0.1834854300       -1.2159875055       -2.1706459096
 H          4.8004301442        0.4665070974        0.8636609672
 H          7.3853580508        0.2472210445        0.4442825270
 H          4.2834963297       -2.4908730496       -4.4903923714
 H          7.7569594393       -0.9572076976       -1.7415776891
 H         -0.4141299625        0.4466125661        0.8952838425
 H         -0.3692881181        0.5176881649       -0.8846489051
 H         -0.3492299795       -1.0255911287       -0.0580874072
 H          2.8819599734        2.5742211306        4.9960234331
 H          4.5407148605        1.9525668286        5.2310860051
 H          3.1632548668        0.8195767364        5.0946336115
  42
    -6.990807 !GC
 C          0.0000000000        0.0000000000        0.0000000000
 C          1.5298557655        0.0000000000        0.0000000000
 C          2.0526987358        1.4469544869        0.0000000000
 C          1.7821755245        2.1475498256        1.3331830655
 N          2.2526553885        1.3812701772        2.4663952632
 C          1.7821531404        0.0149386341        2.5294401934
 C          2.0531817854       -0.7544043677        1.2346630720
 S          3.7557201256        1.7109524250        3.0811388729
 O          4.3158640792        0.5028478235        3.6541381078
 O          4.5787712673        2.4021023526        2.1054551689
 C          3.3745369884        2.8475557895        4.4078423204
 N          2.0212479027       -0.6752274680       -1.2039484336
 C          1.2479727416       -1.2205476809       -2.1890411927
 N          1.9098609232       -1.7737842704       -3.1564395853
 C          3.2295177050       -1.6028348109       -2.8233821140
 C          3.3227124465       -0.9076820389       -1.5899487016
 C          4.6115682924       -0.6438906825       -1.0981629270
 C          5.2466420114       -0.0191400533        0.0113749804
 C          6.5926964558       -0.1426566652       -0.1747674695
 N          6.8478172621       -0.8076642320       -1.3345511886
 C          5.6673697610       -1.1280040983       -1.9252609867
 N          5.5776657824       -1.7844453112       -3.0849111756
 C          4.3622414357       -2.0171610671       -3.5282796519
 H          3.1277541981        1.4506484651       -0.1788063750
 H          1.5772943255        2.0076375712       -0.8061105507
 H          2.3125806395        3.0984301670        1.3495552176
 H          0.7139841764        2.3297402469        1.4702733720
 H          2.3204914925       -0.4655161551        3.3462401549
 H          0.7150392855        0.0331370975        2.7615527046
 H          1.5807078716       -1.7362372561        1.2916783242
 H          3.1289161165       -0.9069001750        1.1460982342
 H          0.1791419227       -1.2001762627       -2.1768012567
 H          4.8020760447        0.4702008350        0.8551425172
 H          7.3855509941        0.2069411481        0.4556231414
 H          4.2743614365       -2.5460232555       -4.4649237540
 H          7.7532440459       -1.0326145971       -1.7113796499
 H         -0.3985295219       -1.0095765924       -0.0247443740
 H         -0.3572401410        0.5112318375        0.8943290156
 H         -0.3773378523        0.5444638621       -0.8544366319
 H          3.2719742405        3.8400381934        3.9980826286
 H          4.1970744370        2.7618180143        5.1023693809
 H          2.4538663076        2.5243432857        4.8773192418
  42
    -6.981127 !GC
 C          0.0000000000        0.0000000000        0.0000000000
 C          1.5297900331        0.0000000000        0.0000000000
 C          2.0560919637        1.4463080228        0.0000000000
 C          1.7695368482        2.1486587606        1.3280737725
 N          2.2554996557        1.3955297412        2.4636718865
 C          1.8064096540        0.0199582204        2.5286498809
 C          2.0559860278       -0.7555612326        1.2318665670
 S          3.7830313246        1.7121410261        3.0215256473
 O          4.6836261921        0.5923120886        2.7996011795
 O          4.2124111123        2.9815113945        2.4716787576
 C          3.5260823162        1.9046698235        4.7836437601
 N          2.0222999843       -0.6752674951       -1.2035334941
 C          1.2495355136       -1.2188121887       -2.1897594042
 N          1.9114610630       -1.7657422068       -3.1606746984
 C          3.2310201387       -1.5914697169       -2.8290504801
 C          3.3240253492       -0.9011905506       -1.5925695091
 C          4.6128287804       -0.6356234320       -1.1014714099
 C          5.2476810630       -0.0159766113        0.0110146525
 C          6.5938949725       -0.1329355148       -0.1786679342
 N          6.8492454196       -0.7877983372       -1.3440843011
 C          5.6689304590       -1.1100071608       -1.9338426844
 N          5.5796559318       -1.7606806615       -3.0967967306
 C          4.3643382325       -1.9976577693       -3.5379663696
 H          3.1340364707        1.4415953071       -0.1659667567
 H          1.5929587732        2.0055879296       -0.8141574489
 H          2.2814125381        3.1104187675        1.3531228734
 H          0.6979783966        2.3108823067        1.4639487346
 H          2.3553418040       -0.4586174938        3.3387865544
 H          0.7425501268        0.0285478177        2.7774611169
 H          1.5690322419       -1.7297842815        1.2977074894
 H          3.1271491831       -0.9211982381        1.1269652527
 H          0.1806385168       -1.2023199797       -2.1763451210
 H          4.8025648460        0.4632494518        0.8602111488
 H          7.3869371026        0.2149399600        0.4525866976
 H          4.2761288901       -2.5230458544       -4.4765943545
 H          7.7545034717       -1.0080147298       -1.7240205543
 H         -0.3687757285        0.4845440080        0.9034813932
 H         -0.3724172841        0.5436700518       -0.8652253204
 H         -0.3917416428       -1.0057672467       -0.0416549904
 H          4.4918551994        2.0809792400        5.2382600780
 H          3.0778530708        0.9980146489        5.1634822745
 H          2.8733521850        2.7564288201        4.9080411267
  42
    -6.961103 !GC
 C          0.0000000000        0.0000000000        0.0000000000
 C          1.5295520846        0.0000000000        0.0000000000
 C          2.0582833723        1.4454983928        0.0000000000
 C          1.7717902951        2.1499814449        1.3271803692
 N          2.2490214595        1.3968996841        2.4667111286
 C          1.7998592926        0.0214970794        2.5300661371
 C          2.0558709644       -0.7546274990        1.2350811649
 S          3.7678443458        1.7192707087        3.0435904900
 O          4.6636754957        0.5885106448        2.8643821876
 O          4.2163919508        2.9726564446        2.4723690733
 C          3.4825786653        1.9559390026        4.7958159961
 N          2.0204683149       -0.6762603560       -1.2036764458
 C          1.2468019522       -1.2230351972       -2.1876575488
 N          1.9084256527       -1.7670701266       -3.1603808577
 C          3.2281789233       -1.5886073133       -2.8321320731
 C          3.3219067621       -0.8989081228       -1.5953391751
 C          4.6110408807       -0.6307356705       -1.1064108738
 C          5.2467070525       -0.0128288083        0.0066640756
 C          6.5928252009       -0.1241058157       -0.1871886473
 N          6.8473829003       -0.7754804584       -1.3547364824
 C          5.6665265695       -1.1002415194       -1.9423350477
 N          5.5765284948       -1.7493115167       -3.1060964997
 C          4.3608969412       -1.9902077623       -3.5444480183
 H          3.1360561685        1.4388771256       -0.1656103492
 H          1.5966492430        2.0053660725       -0.8146314039
 H          2.2879813403        3.1095068184        1.3525003201
 H          0.7004631493        2.3182702333        1.4585317582
 H          2.3445987091       -0.4558962368        3.3436740285
 H          0.7346703424        0.0297575584        2.7736618251
 H          1.5729047345       -1.7306740413        1.3011719695
 H          3.1279055502       -0.9159205868        1.1321705572
 H          0.1780642351       -1.2110066953       -2.1709304239
 H          4.8030090026        0.4622249004        0.8592200920
 H          7.3861692898        0.2243583989        0.4433232811
 H          4.2726602498       -2.5125675815       -4.4847137093
 H          7.7530605239       -0.9892232484       -1.7378399861
 H         -0.4148487842       -0.9993966681       -0.0403375788
 H         -0.3742496706        0.5129735485        0.8829869868
 H         -0.3436436271        0.5581109330       -0.8671285566
 H          4.4248237014        2.1954852014        5.2671916580
 H          3.0641159645        1.0303083796        5.1602815964
 H          2.7835580498        2.7749063835        4.9122799753
  42
    -6.946409 !GC
 C          0.0000000000        0.0000000000        0.0000000000
 C          1.5297998741        0.0000000000        0.0000000000
 C          2.0568030263        1.4462152761        0.0000000000
 C          1.7693355811        2.1487570030        1.3276212159
 N          2.2567512286        1.3967402038        2.4630603671
 C          1.8074074846        0.0210669041        2.5285907794
 C          2.0551467743       -0.7555356336        1.2320378384
 S          3.7869565574        1.7061293959        3.0184905268
 O          4.7117092007        0.6267267932        2.7103549251
 O          4.1750354596        3.0186274778        2.5466596742
 C          3.5540684391        1.7771270895        4.7927155766
 N          2.0229571417       -0.6754484978       -1.2032960188
 C          1.2505631182       -1.2229583523       -2.1877678631
 N          1.9130513584       -1.7672067933       -3.1597845660
 C          3.2325158245       -1.5864015207       -2.8312729483
 C          3.3248962895       -0.8960115927       -1.5947207916
 C          4.6133449050       -0.6250438527       -1.1058471073
 C          5.2477603626       -0.0040755694        0.0061045549
 C          6.5941217494       -0.1139298757       -0.1868871501
 N          6.8499020300       -0.7665968082       -1.3534624660
 C          5.6698314807       -1.0934295747       -1.9411832695
 N          5.5813364094       -1.7443991272       -3.1039629538
 C          4.3662698383       -1.9869060147       -3.5429099416
 H          3.1350070743        1.4406610705       -0.1652266036
 H          1.5946312624        2.0056002900       -0.8145699394
 H          2.2797313401        3.1112901227        1.3533238891
 H          0.6976197247        2.3092655197        1.4640015338
 H          2.3564380827       -0.4585295523        3.3379916321
 H          0.7437877027        0.0301138625        2.7785052959
 H          1.5661836720       -1.7285553997        1.2989943058
 H          3.1257486551       -0.9234967335        1.1270888597
 H          0.1817170192       -1.2119071563       -2.1716758223
 H          4.8025669817        0.4706942850        0.8578487188
 H          7.3867178783        0.2372675391        0.4429102721
 H          4.2786485740       -2.5120997499       -4.4816463513
 H          7.7555177057       -0.9816276128       -1.7356932140
 H         -0.4014113949       -1.0041848924       -0.0711047927
 H         -0.3968951388        0.4999290751        0.8782754959
 H         -0.3342748292        0.5461219464       -0.8793275634
 H          2.8612161418        2.5822618635        4.9981044468
 H          4.5173564801        1.9577624281        5.2447725298
 H          3.1387439176        0.8270320071        5.1008722947
  42
    -6.939121 !GC
 C          0.0000000000        0.0000000000        0.0000000000
 C          1.5298153924        0.0000000000        0.0000000000
 C          2.0530867878        1.4468114144        0.0000000000
 C          1.7852985826        2.1474476149        1.3337871873
 N          2.2563303906        1.3805505700        2.4663580621
 C          1.7838713657        0.0149182073        2.5296399374
 C          2.0531277315       -0.7546251752        1.2346962364
 S          3.7612249227        1.7074900942        3.0781206947
 O          4.3221884729        0.4977213915        3.6468756987
 O          4.5820945133        2.4001937603        2.1017755726
 C          3.3843843780        2.8413162336        4.4084721420
 N          2.0214197200       -0.6750393476       -1.2040314813
 C          1.2480338393       -1.2227977214       -2.1876982689
 N          1.9098531360       -1.7723865495       -3.1571744491
 C          3.2294936902       -1.5965967569       -2.8270864004
 C          3.3229304975       -0.9021229536       -1.5931334274
 C          4.6118993624       -0.6339759321       -1.1040472720
 C          5.2472641990       -0.0092973202        0.0053800443
 C          6.5933289706       -0.1268096074       -0.1845440981
 N          6.8481345308       -0.7870523549       -1.3470764921
 C          5.6675492440       -1.1112071239       -1.9353266249
 N          5.5776804205       -1.7665708888       -3.0955297365
 C          4.3621737081       -2.0045923395       -3.5357390676
 H          3.1277948722        1.4498161522       -0.1810746191
 H          1.5763317816        2.0079188660       -0.8050052590
 H          2.3171240225        3.0976334943        1.3493507182
 H          0.7175143326        2.3310618959        1.4725909227
 H          2.3214724347       -0.4664349136        3.3464413697
 H          0.7168222094        0.0347536135        2.7616450347
 H          1.5801015513       -1.7361286827        1.2923937560
 H          3.1286517626       -0.9079539097        1.1456224582
 H          0.1791537665       -1.2074302837       -2.1726271465
 H          4.8029736428        0.4751071231        0.8521536805
 H          7.3863743707        0.2240206680        0.4449236359
 H          4.2740639955       -2.5320076253       -4.4732148711
 H          7.7534248218       -1.0074167499       -1.7267499605
 H         -0.3711131350        0.4989776353        0.8944262135
 H         -0.3716756637        0.5282761235       -0.8749460914
 H         -0.3902730978       -1.0069144222       -0.0250779439
 H          3.2805732845        3.8346202156        4.0010034005
 H          4.2090355512        2.7539587078        5.1003217677
 H          2.4650567778        2.5170234076        4.8798629503
  42
    -6.922256 !GC
 C          0.0000000000        0.0000000000        0.0000000000
 C          1.5294816842        0.0000000000        0.0000000000
 C          2.0559752577        1.4457672571        0.0000000000
 C          1.8023521463        2.1491453154        1.3364010129
 N          2.2483610546        1.3787078676        2.4788092682
 C          1.7686050806        0.0147532541        2.5291030289
 C          2.0571025746       -0.7528633559        1.2379495098
 S          3.7645189223        1.7081263238        3.0582548702
 O          4.1987056479        0.5821479773        3.8593376991
 O          4.6727401247        2.1150877237        1.9984649245
 C          3.4766177217        3.1061990990        4.1403795682
 N          2.0191671112       -0.6746714259       -1.2050740189
 C          1.2439537526       -1.2299408387       -2.1830407429
 N          1.9039354493       -1.7789027649       -3.1541059702
 C          3.2242151913       -1.5940189154       -2.8314556757
 C          3.3199581208       -0.8961288424       -1.5995901806
 C          4.6102096011       -0.6207670718       -1.1174763535
 C          5.2482307924        0.0084231354       -0.0120601746
 C          6.5939269278       -0.1015335226       -0.2093090360
 N          6.8460822024       -0.7622639766       -1.3720292091
 C          5.6641285831       -1.0938225958       -1.9534128045
 N          5.5718402424       -1.7508083022       -3.1125507235
 C          4.3552577476       -1.9966830835       -3.5455029113
 H          3.1277118404        1.4405617632       -0.1929917993
 H          1.5724265528        2.0101923494       -0.7986685265
 H          2.3505824781        3.0903213237        1.3516403379
 H          0.7379094238        2.3571463100        1.4697989640
 H          2.2817954396       -0.4625343621        3.3636778008
 H          0.6968009691        0.0414756654        2.7381153282
 H          1.5972974505       -1.7406759127        1.2920663061
 H          3.1352108895       -0.8889882293        1.1473046869
 H          0.1751995570       -1.2195466218       -2.1634795972
 H          4.8062908654        0.4915100597        0.8367930087
 H          7.3884709207        0.2550483560        0.4151617015
 H          4.2650036210       -2.5267516116       -4.4812838577
 H          7.7504291052       -0.9786940274       -1.7562032478
 H         -0.3972018771       -1.0103085675        0.0170117240
 H         -0.3541193618        0.5450224554        0.8757176873
 H         -0.3814876496        0.5106868131       -0.8730832385
 H          3.1164003846        3.9315725132        3.5435256178
 H          4.4175199786        3.3518947602        4.6146253258
 H          2.7435759546        2.7875662657        4.8671449680
  42
    -6.911369 !GC
 C          0.0000000000        0.0000000000        0.0000000000
 C          1.5297625290        0.0000000000        0.0000000000
 C          2.0566541477        1.4461439262        0.0000000000
 C          1.7726611911        2.1481538066        1.3290119486
 N          2.2573941108        1.3944171633        2.4650530066
 C          1.8052783502        0.0197205031        2.5283830531
 C          2.0561393834       -0.7554395143        1.2318927291
 S          3.7886714541        1.7095710875        3.0142181330
 O          4.6847316287        0.5864780140        2.7928931115
 O          4.2195032555        2.9740460205        2.4540705177
 C          3.5428090553        1.9142386818        4.7764885998
 N          2.0225788001       -0.6764389751       -1.2027947223
 C          1.2508897731       -1.2236638334       -2.1878422508
 N          1.9140691437       -1.7662828790       -3.1603957140
 C          3.2333795840       -1.5842466282       -2.8316287753
 C          3.3247290687       -0.8954221012       -1.5939963025
 C          4.6125686069       -0.6236395451       -1.1040303537
 C          5.2453332663       -0.0041274994        0.0097584243
 C          6.5919190742       -0.1109541798       -0.1830468263
 N          6.8494106822       -0.7595284628       -1.3515331233
 C          5.6701641441       -1.0882487878       -1.9400237672
 N          5.5828178796       -1.7364365172       -3.1045754647
 C          4.3681614394       -1.9814747974       -3.5434187197
 H          3.1341101949        1.4408292450       -0.1682425537
 H          1.5920462085        2.0062248875       -0.8127824437
 H          2.2856497732        3.1093248556        1.3542075523
 H          0.7014230513        2.3120956379        1.4654787999
 H          2.3503673330       -0.4603609463        3.3400452351
 H          0.7408272025        0.0310937573        2.7746998962
 H          1.5698167384       -1.7298519452        1.2972989638
 H          3.1274115811       -0.9202532379        1.1266150438
 H          0.1819993977       -1.2133588500       -2.1716316562
 H          4.7986911736        0.4678938383        0.8622471313
 H          7.3835173341        0.2400569157        0.4481270885
 H          4.2816689938       -2.5041075962       -4.4836905852
 H          7.7555208816       -0.9711523931       -1.7342803928
 H         -0.3970292390       -1.0099869417       -0.0369875441
 H         -0.3573773157        0.4996232871        0.9010561918
 H         -0.3785109431        0.5545160537       -0.8474384086
 H          4.5143447083        2.1334145341        5.1917707171
 H          3.1417935062        0.9847416342        5.1582167969
 H          2.8435536854        2.7219713443        4.9433469568
  42
    -6.880059 !GC
 C          0.0000000000        0.0000000000        0.0000000000
 C          1.5296416623        0.0000000000        0.0000000000
 C          2.0553752833        1.4464481171        0.0000000000
 C          1.7677731851        2.1567675322        1.3248675011
 N          2.2188675241        1.3871526329        2.4611848864
 C          1.7836917856        0.0086374062        2.4948250328
 C          2.0598497069       -0.7271119152        1.1816569316
 S          3.6554399931        1.7532555795        3.1949523228
 O          4.2384475890        0.5599920898        3.7781230491
 O          4.5095768849        2.5122814668        2.2999025088
 C          3.1198211998        2.8217438945        4.5240568634
 N          2.0206030286       -0.6748338008       -1.2045762960
 C          1.2462328559       -1.2180845745       -2.1900528170
 N          1.9069393980       -1.7651921008       -3.1617704932
 C          3.2270817580       -1.5904905135       -2.8321048461
 C          3.3216804806       -0.9007203580       -1.5953477161
 C          4.6110530156       -0.6340320425       -1.1063888992
 C          5.2468757243       -0.0137029941        0.0052926887
 C          6.5929569348       -0.1263044471       -0.1881774671
 N          6.8470497184       -0.7810548525       -1.3539674767
 C          5.6662669798       -1.1044900583       -1.9419956500
 N          5.5756489209       -1.7557542578       -3.1042657372
 C          4.3598081228       -1.9957663907       -3.5424590714
 H          3.1324753488        1.4446653823       -0.1662120129
 H          1.5903168181        2.0033579541       -0.8147680906
 H          2.2955770059        3.1088755229        1.3475436076
 H          0.6978571242        2.3399895773        1.4446921429
 H          2.3375051880       -0.4763909132        3.2993053918
 H          0.7170830440       -0.0050629797        2.7315351226
 H          1.5960573911       -1.7138531034        1.2202444729
 H          3.1355478429       -0.8673903876        1.0783324561
 H          0.1774724827       -1.1994214462       -2.1752000663
 H          4.8027656391        0.4639715326        0.8560799063
 H          7.3866027791        0.2236221593        0.4409992842
 H          4.2713510751       -2.5206887289       -4.4810951361
 H          7.7521502810       -0.9964433098       -1.7366317301
 H         -0.3748776263        0.4922224483        0.8968634544
 H         -0.3772464663        0.5200728423       -0.8762394912
 H         -0.3810542974       -1.0119399909        0.0007997062
 H          3.0075971898        3.8217521438        4.1274901959
 H          3.8441619914        2.7872727689        5.3228199579
 H          2.1581788402        2.4305553630        4.8259515611
  42
    -6.876133 !GC
 C          0.0000000000        0.0000000000        0.0000000000
 C          1.5298074440        0.0000000000        0.0000000000
 C          2.0574570652        1.4459908195        0.0000000000
 C          1.7726188514        2.1477480044        1.3288804327
 N          2.2578772286        1.3945514762        2.4649178395
 C          1.8063230406        0.0196378330        2.5285734794
 C          2.0556966064       -0.7556392083        1.2318481589
 S          3.7901073394        1.7057908970        3.0140131521
 O          4.7003631459        0.6043358356        2.7442399310
 O          4.1983621467        2.9958965090        2.4976820316
 C          3.5561556701        1.8411835338        4.7845099010
 N          2.0225743066       -0.6765186235       -1.2026907021
 C          1.2510352675       -1.2254825620       -2.1867500884
 N          1.9143344225       -1.7662108771       -3.1603031658
 C          3.2335823478       -1.5806436279       -2.8333062994
 C          3.3247693304       -0.8921865007       -1.5954491431
 C          4.6124944714       -0.6171824780       -1.1069156017
 C          5.2450757304        0.0029396227        0.0066412231
 C          6.5916839428       -0.0985276525       -0.1889696122
 N          6.8493260503       -0.7430891214       -1.3596038779
 C          5.6701790291       -1.0760220234       -1.9459162184
 N          5.5830433661       -1.7229806532       -3.1111157554
 C          4.3685181753       -1.9728120115       -3.5476002031
 H          3.1351476239        1.4401260188       -0.1676199133
 H          1.5935458498        2.0063865462       -0.8129312592
 H          2.2850039666        3.1092157610        1.3546731024
 H          0.7012483116        2.3108628250        1.4652463652
 H          2.3519970472       -0.4609164542        3.3395151977
 H          0.7420776856        0.0306253945        2.7758322073
 H          1.5685324212       -1.7295583172        1.2977461566
 H          3.1266411307       -0.9213983381        1.1260273398
 H          0.1820985470       -1.2184142377       -2.1687557487
 H          4.7984401249        0.4707123985        0.8614961510
 H          7.3832626024        0.2539432242        0.4414223889
 H          4.2823183238       -2.4951684185       -4.4880315135
 H          7.7556069271       -0.9498912057       -1.7445670130
 H         -0.4135721337        0.4505869999        0.8936846207
 H         -0.3693949754        0.5146630263       -0.8866515089
 H         -0.3498601750       -1.0256739556       -0.0537704892
 H          4.5293866762        2.0505993216        5.2010006155
 H          3.1630699645        0.8958207568        5.1342857111
 H          2.8534334516        2.6380666634        4.9856278860
  42
    -6.859186 !GC
 C          0.0000000000        0.0000000000        0.0000000000
 C          1.5298301538        0.0000000000        0.0000000000
 C          2.0550122430        1.4462241766        0.0000000000
 C          1.8057843764        2.1477869280        1.3383692023
 N          2.2543739065        1.3748196596        2.4785188504
 C          1.7685389193        0.0129367992        2.5271906560
 C          2.0552756801       -0.7536198857        1.2351643570
 S          3.7827099950        1.6937190347        3.0339399729
 O          4.1936741983        0.5901108185        3.8766670920
 O          4.6953189121        2.0346169699        1.9543680042
 C          3.5359467589        3.1407554790        4.0598674418
 N          2.0226504050       -0.6744207301       -1.2038813737
 C          1.2505597691       -1.2286212234       -2.1847623555
 N          1.9133957811       -1.7720446318       -3.1569273490
 C          3.2326979513       -1.5856357878       -2.8312514888
 C          3.3246621810       -0.8919645604       -1.5965516071
 C          4.6129406164       -0.6167707058       -1.1095021715
 C          5.2468355680        0.0067863943        0.0013005620
 C          6.5932344897       -0.1009859126       -0.1923158093
 N          6.8495791015       -0.7554335779       -1.3578374472
 C          5.6697297965       -1.0847324950       -1.9447106552
 N          5.5815411738       -1.7354194700       -3.1076958225
 C          4.3666123424       -1.9821954342       -3.5446333564
 H          3.1260598236        1.4430376297       -0.1963124441
 H          1.5679181661        2.0111944509       -0.7962031055
 H          2.3546546209        3.0885731538        1.3521162609
 H          0.7420443621        2.3563217757        1.4753590765
 H          2.2793845433       -0.4673563850        3.3614975798
 H          0.6967780222        0.0443479175        2.7356061586
 H          1.5923606680       -1.7401317911        1.2877309291
 H          3.1332037022       -0.8926002339        1.1440276983
 H          0.1815880856       -1.2221949082       -2.1670092131
 H          4.8008970433        0.4852653289        0.8504579515
 H          7.3855976926        0.2523531900        0.4367027396
 H          4.2790784378       -2.5047582991       -4.4849127355
 H          7.7555749497       -0.9689195514       -1.7402482388
 H         -0.4144024306       -1.0004454780        0.0038874091
 H         -0.3718973241        0.5498456008        0.8616663612
 H         -0.3466936246        0.5206049446       -0.8888652898
 H          3.1470648108        3.9280008994        3.4275704227
 H          4.5049451013        3.3915322126        4.4637442156
 H          2.8265937933        2.8989929759        4.8397782961
  42
    -6.834155 !GC
 C          0.0000000000        0.0000000000        0.0000000000
 C          1.5298644709        0.0000000000        0.0000000000
 C          2.0562572430        1.4463441079        0.0000000000
 C          1.7665799671        2.1482395499        1.3274030673
 N          2.2566182819        1.3971051550        2.4623635497
 C          1.8091071814        0.0209132037        2.5287360908
 C          2.0553097235       -0.7556355220        1.2317491748
 S          3.7877067560        1.7091521350        3.0146153786
 O          4.7098303598        0.6249191944        2.7155709523
 O          4.1788408423        3.0167648674        2.5314032614
 C          3.5558187214        1.7955168308        4.7882419589
 N          2.0236931270       -0.6756479581       -1.2028597528
 C          1.2524374622       -1.2195011620       -2.1902047068
 N          1.9160399369       -1.7631843970       -3.1618125637
 C          3.2351700010       -1.5854233876       -2.8300680681
 C          3.3260618633       -0.8976930629       -1.5918760369
 C          4.6137392136       -0.6295272897       -1.0995418754
 C          5.2462099102       -0.0115175154        0.0151814909
 C          6.5928500660       -0.1231525866       -0.1746098976
 N          6.8506030171       -0.7741225962       -1.3417782111
 C          5.6715011524       -1.0981755241       -1.9329989186
 N          5.5845933249       -1.7463976395       -3.0974870078
 C          4.3701564170       -1.9862365514       -3.5396390302
 H          3.1347367474        1.4416984435       -0.1634304765
 H          1.5949984650        2.0051636783       -0.8154871954
 H          2.2740335353        3.1122559068        1.3531103592
 H          0.6944028119        2.3052438299        1.4638790552
 H          2.3604697117       -0.4578248658        3.3370956282
 H          0.7460029537        0.0287275392        2.7809524454
 H          1.5654559036       -1.7282641076        1.2987872573
 H          3.1257254527       -0.9245218147        1.1261083389
 H          0.1835734824       -1.2062789445       -2.1763956273
 H          4.7992478734        0.4626653869        0.8662902182
 H          7.3845410369        0.2253527009        0.4578279676
 H          4.2840622834       -2.5093285092       -4.4797003542
 H          7.7569307672       -0.9898808052       -1.7219388860
 H         -0.4142787250        0.4405185702        0.8982592329
 H         -0.3692682378        0.5235254875       -0.8812212632
 H         -0.3493457289       -1.0251511724       -0.0648826663
 H          4.5146945937        1.9908297038        5.2461559080
 H          3.1445443775        0.8427714326        5.0847768850
 H          2.8656135652        2.6031862302        4.9987909759
  42
    -6.831647 !GC
 C          0.0000000000        0.0000000000        0.0000000000
 C          1.5294415635        0.0000000000        0.0000000000
 C          2.0557426715        1.4458573366        0.0000000000
 C          1.8055817480        2.1490561926        1.3372972269
 N          2.2500251958        1.3774414707        2.4797072150
 C          1.7671141252        0.0146410229        2.5291364557
 C          2.0572337141       -0.7528971123        1.2384288042
 S          3.7665798125        1.7072818431        3.0575926172
 O          4.1643042187        0.6146442971        3.9203743967
 O          4.6980950158        2.0402756214        1.9916808886
 C          3.4959114009        3.1646740881        4.0631525783
 N          2.0196083882       -0.6747771060       -1.2048772631
 C          1.2445950975       -1.2308139555       -2.1827060764
 N          1.9048625556       -1.7781029076       -3.1544879298
 C          3.2250745147       -1.5916823131       -2.8324875418
 C          3.3204757153       -0.8943058143       -1.6001762313
 C          4.6105105179       -0.6177819298       -1.1183271693
 C          5.2480988367        0.0110170049       -0.0123864195
 C          6.5938491365       -0.0977104751       -0.2097149510
 N          6.8464588395       -0.7567720102       -1.3733522735
 C          5.6647416297       -1.0889186449       -1.9550107310
 N          5.5729288175       -1.7448372545       -3.1148621890
 C          4.3564418483       -1.9922170787       -3.5473240099
 H          3.1268003890        1.4410615722       -0.1957014361
 H          1.5699649320        2.0107565552       -0.7969704019
 H          2.3557652645        3.0890914820        1.3513340625
 H          0.7417737619        2.3597237247        1.4716040390
 H          2.2777922311       -0.4631636190        3.3650150408
 H          0.6949278125        0.0435658351        2.7360636022
 H          1.5981548439       -1.7410855296        1.2919991945
 H          3.1356179063       -0.8880974392        1.1481496273
 H          0.1758764366       -1.2222478670       -2.1624532503
 H          4.8055333422        0.4934137786        0.8365914803
 H          7.3879323656        0.2590016581        0.4151253429
 H          4.2663207256       -2.5205925999       -4.4840370880
 H          7.7510224037       -0.9719290091       -1.7577659318
 H         -0.3973275449       -1.0102564827        0.0209956691
 H         -0.3540126154        0.5489875150        0.8733454912
 H         -0.3810963445        0.5070702045       -0.8753852866
 H          3.1265828605        3.9270216498        3.3945396564
 H          4.4336286711        3.4400017410        4.5237381528
 H          2.7619971426        2.9183653635        4.8204838503
  42
    -6.817291 !GC
 C          0.0000000000        0.0000000000        0.0000000000
 C          1.5294910204        0.0000000000        0.0000000000
 C          2.0562433360        1.4456876433        0.0000000000
 C          1.8031851915        2.1492386398        1.3366045829
 N          2.2458212193        1.3781397895        2.4799500234
 C          1.7653705802        0.0145857280        2.5292860426
 C          2.0570522252       -0.7525142466        1.2386711635
 S          3.7585963442        1.7128072779        3.0643954370
 O          4.1607671303        0.6178466248        3.9221503592
 O          4.6905983574        2.0574843020        2.0026650951
 C          3.4754890486        3.1628220538        4.0770688784
 N          2.0193015839       -0.6754901871       -1.2045602423
 C          1.2444228629       -1.2320484095       -2.1821691024
 N          1.9048940108       -1.7812172207       -3.1527883448
 C          3.2250554094       -1.5954220496       -2.8301832047
 C          3.3202304202       -0.8962063141       -1.5989223769
 C          4.6101751887       -0.6200317785       -1.1165174957
 C          5.2475797950        0.0095197155       -0.0109016287
 C          6.5933943467       -0.0993621892       -0.2079718601
 N          6.8461681713       -0.7615371843       -1.3698264475
 C          5.6645323085       -1.0938197609       -1.9515006334
 N          5.5729177716       -1.7517811769       -3.1101723498
 C          4.3565716713       -1.9983801636       -3.5434097000
 H          3.1277487481        1.4409440357       -0.1935561194
 H          1.5721092043        2.0102997700       -0.7981706557
 H          2.3533888053        3.0892593911        1.3514316430
 H          0.7390872282        2.3598024558        1.4686907881
 H          2.2767442007       -0.4622503942        3.3652983902
 H          0.6930670610        0.0415330375        2.7359579197
 H          1.5989071997       -1.7411136685        1.2918809439
 H          3.1355657741       -0.8867885849        1.1488306475
 H          0.1756896327       -1.2224718215       -2.1624249011
 H          4.8051173203        0.4926243820        0.8377292832
 H          7.3874389926        0.2585746712        0.4162271438
 H          4.2668375997       -2.5285786259       -4.4791430403
 H          7.7507799620       -0.9782298001       -1.7532509059
 H         -0.3655956982        0.5310692487        0.8784847162
 H         -0.3747084917        0.4981385881       -0.8912735661
 H         -0.3922888952       -1.0062989804        0.0128367641
 H          3.0992322140        3.9250188457        3.4120376804
 H          4.4113659763        3.4441192325        4.5379543040
 H          2.7442437224        2.9072386670        4.8339615590
  42
    -6.781753 !GC
 C          0.0000000000        0.0000000000        0.0000000000
 C          1.5298674989        0.0000000000        0.0000000000
 C          2.0567178522        1.4461946780        0.0000000000
 C          1.7658259883        2.1495007018        1.3263005446
 N          2.2526325204        1.3992017721        2.4632297263
 C          1.8064153665        0.0224347628        2.5294390655
 C          2.0544690240       -0.7544300513        1.2329495506
 S          3.7826857984        1.7118726315        3.0188372335
 O          4.7088561324        0.6332250118        2.7130259900
 O          4.1697923427        3.0237170003        2.5445092767
 C          3.5483197214        1.7866427080        4.7926140800
 N          2.0236539625       -0.6761138114       -1.2027232044
 C          1.2517981720       -1.2221672259       -2.1884134456
 N          1.9147658429       -1.7664242720       -3.1601411398
 C          3.2340189770       -1.5866178081       -2.8303761480
 C          3.3258572916       -0.8972435355       -1.5932076148
 C          4.6140620199       -0.6268322344       -1.1033449702
 C          5.2479626031       -0.0066767572        0.0094166126
 C          6.5943989348       -0.1171796856       -0.1826099522
 N          6.8507177481       -0.7685548827       -1.3497906512
 C          5.6709174482       -1.0944823282       -1.9385215005
 N          5.5830064052       -1.7448361337       -3.1017253237
 C          4.3682079587       -1.9872458975       -3.5413738250
 H          3.1353395162        1.4408540216       -0.1627627536
 H          1.5960658020        2.0046168983       -0.8160363344
 H          2.2748968150        3.1127205542        1.3519856681
 H          0.6936508553        2.3087174180        1.4606960360
 H          2.3573750669       -0.4552813599        3.3387038650
 H          0.7430901106        0.0292430968        2.7804724170
 H          1.5651640235       -1.7273014510        1.3004705931
 H          3.1250499417       -0.9227643421        1.1284116298
 H          0.1829785140       -1.2098767722       -2.1734118558
 H          4.8022972353        0.4683335101        0.8607544012
 H          7.3867205398        0.2331364072        0.4480416181
 H          4.2811216971       -2.5111916034       -4.4808350961
 H          7.7564988080       -0.9835778190       -1.7315147108
 H         -0.4016208418       -1.0039698561       -0.0726909496
 H         -0.3970177392        0.4987800419        0.8789308459
 H         -0.3338228855        0.5473529928       -0.8786189917
 H          4.5046974154        1.9859924874        5.2534238130
 H          3.1430413844        0.8295726646        5.0828548449
 H          2.8523011171        2.5879721832        5.0072221366
  42
    -6.499384 !GC
 C          0.0000000000        0.0000000000        0.0000000000
 C          1.5294661658        0.0000000000        0.0000000000
 C          2.0523119307        1.4465402892        0.0000000000
 C          1.8154361993        2.1483663896        1.3410460488
 N          2.2469015257        1.3657442773        2.4803798381
 C          1.7474690868        0.0112071403        2.5309077925
 C          2.0545895848       -0.7525806091        1.2431031304
 S          3.7324778854        1.7150480601        3.1229549282
 O          3.7391227686        1.1285538180        4.4428199983
 O          4.8592879978        1.3867712177        2.2596920894
 C          3.6523874326        3.4930730725        3.2965159377
 N          2.0176377505       -0.6742353220       -1.2058303531
 C          1.2408366750       -1.2293640349       -2.1828628546
 N          1.8996259427       -1.7842888685       -3.1513366484
 C          3.2203069830       -1.6052638667       -2.8273220246
 C          3.3178524255       -0.9031483364       -1.5983145876
 C          4.6090418271       -0.6318819637       -1.1163400894
 C          5.2494051033        0.0002542740       -0.0138994633
 C          6.5946739076       -0.1191105165       -0.2084776054
 N          6.8445074651       -0.7883877608       -1.3668787600
 C          5.6612919168       -1.1155460418       -1.9482908872
 N          5.5668532124       -1.7773696772       -3.1044179662
 C          4.3495148514       -2.0173972427       -3.5385117866
 H          3.1208868487        1.4505989239       -0.2057057520
 H          1.5563962474        2.0121977492       -0.7901941166
 H          2.3825783042        3.0774917576        1.3462579715
 H          0.7555500978        2.3770498535        1.4765830142
 H          2.2530940937       -0.4666738189        3.3704358763
 H          0.6736588072        0.0466771902        2.7260453990
 H          1.6078608674       -1.7467197166        1.2912169263
 H          3.1363788402       -0.8775616249        1.1677967640
 H          0.1721482975       -1.2137836116       -2.1640887702
 H          4.8096368170        0.4942056587        0.8299218180
 H          7.3902428928        0.2366895724        0.4150218132
 H          4.2577517962       -2.5508757726       -4.4721433007
 H          7.7482018115       -1.0114817689       -1.7488840389
 H         -0.3987194143       -1.0089942859        0.0390314625
 H         -0.3536077924        0.5653549491        0.8628793859
 H         -0.3798577676        0.4915281906       -0.8847715970
 H          2.6462908355        3.7579028797        3.5859416377
 H          3.9192160625        3.8875057871        2.3274380402
 H          4.3663355520        3.8054468289        4.0459904908
  42
    -6.457609 !GC
 C          0.0000000000        0.0000000000        0.0000000000
 C          1.5293990457        0.0000000000        0.0000000000
 C          2.0523754865        1.4465134424        0.0000000000
 C          1.8205579832        2.1475569482        1.3423804411
 N          2.2531753645        1.3638397350        2.4806790330
 C          1.7484104415        0.0111303945        2.5310938000
 C          2.0539361378       -0.7531785216        1.2432902720
 S          3.7455572758        1.7032637919        3.1135642568
 O          3.7469508524        1.1349644734        4.4413914649
 O          4.8668199367        1.3479642670        2.2535020268
 C          3.6904310689        3.4844709553        3.2634368333
 N          2.0183819724       -0.6733897994       -1.2060537896
 C          1.2417234267       -1.2289929411       -2.1830004845
 N          1.9006463263       -1.7812662296       -3.1528784404
 C          3.2212589978       -1.6000730954       -2.8299052419
 C          3.3186942361       -0.8995098932       -1.5998845511
 C          4.6098950637       -0.6276045164       -1.1182449593
 C          5.2503082377        0.0023991111       -0.0146141677
 C          6.5955514488       -0.1156052339       -0.2099727787
 N          6.8453527278       -0.7821170449       -1.3699801643
 C          5.6621620922       -1.1086644734       -1.9516872819
 N          5.5678855468       -1.7682083712       -3.1090987710
 C          4.3505756350       -2.0090342971       -3.5428078627
 H          3.1201939665        1.4497423950       -0.2091839561
 H          1.5541843417        2.0130663791       -0.7881670861
 H          2.3889098838        3.0759040888        1.3463846211
 H          0.7614388086        2.3780259690        1.4810214133
 H          2.2512664530       -0.4685399388        3.3712773963
 H          0.6746080573        0.0509389091        2.7251057858
 H          1.6066149499       -1.7470713133        1.2915829466
 H          3.1356891326       -0.8786617750        1.1678740225
 H          0.1730119617       -1.2159633832       -2.1632762192
 H          4.8105486413        0.4941083149        0.8304964699
 H          7.3911603171        0.2391002000        0.4140965907
 H          4.2587734384       -2.5411121385       -4.4772053524
 H          7.7491453237       -1.0036775545       -1.7526091046
 H         -0.3877424712        0.4881657546       -0.8897618235
 H         -0.3853643609       -1.0144166535        0.0549395572
 H         -0.3595242438        0.5439452448        0.8659853182
 H          3.9597862874        3.8960485857        2.3032314998
 H          4.3832792636        3.7557281024        4.0465137129
 H          2.6847447820        3.7692272867        3.5467173551
  42
    -6.418530 !GC
 C          0.0000000000        0.0000000000        0.0000000000
 C          1.5295453979        0.0000000000        0.0000000000
 C          2.0522983000        1.4465250197        0.0000000000
 C          1.8135936616        2.1482237224        1.3408480762
 N          2.2433402796        1.3659966842        2.4811655097
 C          1.7444741622        0.0111755063        2.5308047057
 C          2.0545696145       -0.7521128804        1.2434687813
 S          3.7284858895        1.7148044275        3.1256473674
 O          3.7335033380        1.1276143370        4.4451306602
 O          4.8564726371        1.3864058989        2.2640730259
 C          3.6475336897        3.4926032820        3.3000883292
 N          2.0172713345       -0.6746375386       -1.2056992525
 C          1.2409594046       -1.2313287443       -2.1821367770
 N          1.9003038784       -1.7897629448       -3.1482928164
 C          3.2208284110       -1.6116793563       -2.8230426994
 C          3.3175343182       -0.9063830244       -1.5960810883
 C          4.6083133968       -0.6348055646       -1.1132555329
 C          5.2476719908        0.0006991023       -0.0122572621
 C          6.5930901620       -0.1206269817       -0.2045675450
 N          6.8438941763       -0.7950612709       -1.3597825746
 C          5.6611425507       -1.1226477774       -1.9419865824
 N          5.5673624374       -1.7885205553       -3.0958616297
 C          4.3503397392       -2.0279089002       -3.5312420598
 H          3.1210573018        1.4505189503       -0.2047699089
 H          1.5571682519        2.0121034620       -0.7907849278
 H          2.3805513944        3.0774714255        1.3468342796
 H          0.7533966612        2.3766167268        1.4745797325
 H          2.2485946683       -0.4664724618        3.3713547844
 H          0.6702843238        0.0460944422        2.7239181882
 H          1.6099447577       -1.7471899371        1.2908576783
 H          3.1367239418       -0.8747436961        1.1695604575
 H          0.1722531913       -1.2140759098       -2.1649757996
 H          4.8075589764        0.4981498660        0.8292754708
 H          7.3881564802        0.2366852351        0.4186818275
 H          4.2592990605       -2.5642839005       -4.4632734651
 H          7.7478783660       -1.0191654369       -1.7403172292
 H         -0.3675640179        0.5426882549        0.8702429547
 H         -0.3740451053        0.4849495037       -0.8984651882
 H         -0.3909813974       -1.0064698373        0.0262354566
 H          2.6443841077        3.7565076286        3.6011893485
 H          3.9028283452        3.8867959751        2.3275373981
 H          4.3702312761        3.8059118995        4.0409333985
  42
    -6.301946 !GC
 C          0.0000000000        0.0000000000        0.0000000000
 C          1.5298031544        0.0000000000        0.0000000000
 C          2.0534764373        1.4471366849        0.0000000000
 C          1.7533719148        2.1480872679        1.3241500461
 N          2.2718159409        1.4048310971        2.4505478795
 C          1.8352231026        0.0258043619        2.5312020210
 C          2.0568094242       -0.7583697134        1.2332314153
 S          3.7997649119        1.7314828482        3.0051205596
 O          4.8296087010        0.9001328218        2.3987558140
 O          3.9858517942        3.1605700723        2.8849359308
 C          3.6798166515        1.3138158136        4.7420925364
 N          2.0198894744       -0.6724599291       -1.2061497333
 C          1.2448949193       -1.2127712146       -2.1925263370
 N          1.9047833244       -1.7221664775       -3.1849161877
 C          3.2245766358       -1.5249805920       -2.8685819390
 C          3.3202363518       -0.8620950373       -1.6182293598
 C          4.6114910420       -0.5975012636       -1.1318138652
 C          5.2524960806       -0.0254212841        0.0030224230
 C          6.5976894999       -0.1086455120       -0.2110321256
 N          6.8468575540       -0.6989236273       -1.4115487257
 C          5.6636270457       -1.0140568345       -1.9995971302
 N          5.5695520936       -1.6167468970       -3.1876817444
 C          4.3527344368       -1.8682596902       -3.6165776153
 H          3.1340410988        1.4472338080       -0.1530067354
 H          1.5989387305        2.0032006258       -0.8210042449
 H          2.2423261456        3.1216093943        1.3486798962
 H          0.6793124113        2.2814243147        1.4683352439
 H          2.4050880254       -0.4509889365        3.3273502490
 H          0.7774803063        0.0292860810        2.8054642022
 H          1.5525241239       -1.7228924403        1.3101369098
 H          3.1230092907       -0.9442813970        1.1197541398
 H          0.1764317504       -1.2237847234       -2.1614455909
 H          4.8145802947        0.3985760081        0.8854742153
 H          7.3930870387        0.2196504169        0.4276045565
 H          4.2606292356       -2.3596625896       -4.5729772153
 H          7.7503065435       -0.8853074855       -1.8133671031
 H         -0.3688983765       -1.0226328978       -0.0803495566
 H         -0.4098761978        0.4584916841        0.8938641773
 H         -0.3547248024        0.5555375768       -0.8582371451
 H          2.9307182936        1.9511845430        5.1859077738
 H          4.6569584077        1.4633978845        5.1786125867
 H          3.3904308698        0.2714671155        4.8000414409
  42
    -6.230614 !GC
 C          0.0000000000        0.0000000000        0.0000000000
 C          1.5296459519        0.0000000000        0.0000000000
 C          2.0608190729        1.4446858239        0.0000000000
 C          1.7341550809        2.1592306638        1.3096712352
 N          2.2619344473        1.4303836869        2.4411918443
 C          1.8440345295        0.0463152592        2.5321450565
 C          2.0508305419       -0.7568958154        1.2425841551
 S          3.7802869159        1.8315511555        2.9720928469
 O          4.8594745049        1.6649079261        2.0040687203
 O          3.6231998893        3.1533837024        3.5288775669
 C          4.0376886822        0.6785957985        4.3181537733
 N          2.0208709695       -0.6690104253       -1.2076772260
 C          1.2476230910       -1.1873971543       -2.2071274498
 N          1.9068295002       -1.7755819202       -3.1554793343
 C          3.2243407529       -1.6631317801       -2.7907572860
 C          3.3181305632       -0.9741511816       -1.5556289201
 C          4.6064227436       -0.7656279680       -1.0362992581
 C          5.2449745703       -0.1606778865        0.0822780554
 C          6.5876773011       -0.3480317824       -0.0719084501
 N          6.8376356549       -1.0348469708       -1.2200041278
 C          5.6570688519       -1.3056434604       -1.8348962972
 N          5.5634638764       -1.9669451350       -2.9914221430
 C          4.3489030920       -2.1485217436       -3.4602287923
 H          3.1468207441        1.4403121982       -0.1209894434
 H          1.6337123311        1.9951712599       -0.8395215151
 H          2.2198257773        3.1357418871        1.3292201431
 H          0.6580515173        2.2835185427        1.4439748838
 H          2.4164441987       -0.4212871609        3.3305051635
 H          0.7877466461        0.0465986279        2.8138158126
 H          1.5291092599       -1.7104587097        1.3353031522
 H          3.1109595431       -0.9639185600        1.1216914007
 H          0.1811221011       -1.1155681138       -2.2232198700
 H          4.8048978285        0.3551710960        0.9125148596
 H          7.3815189135       -0.0308217734        0.5741746622
 H          4.2580226466       -2.6787681250       -4.3958372863
 H          7.7396368726       -1.3039879429       -1.5754536881
 H         -0.3881672871        0.5925287224       -0.8239464190
 H         -0.3816190565       -1.0151160302       -0.0713471155
 H         -0.3630301458        0.4317245704        0.9256796247
 H          3.0651165171        0.3372397679        4.6410282261
 H          4.5142912970        1.2567721542        5.0981750926
 H          4.6702924879       -0.1332753270        3.9918282586
  42
    -6.185128 !GC
 C          0.0000000000        0.0000000000        0.0000000000
 C          1.5295887989        0.0000000000        0.0000000000
 C          2.0628297873        1.4436878027        0.0000000000
 C          1.7347075579        2.1591400751        1.3086811666
 N          2.2627379048        1.4311375588        2.4405300945
 C          1.8449191777        0.0471139775        2.5327529375
 C          2.0496288997       -0.7578448926        1.2436443601
 S          3.7801415503        1.8349155732        2.9710140119
 O          4.8579601201        1.6863067219        1.9984903726
 O          3.6161841734        3.1491881771        3.5433264832
 C          4.0485569281        0.6669923468        4.3021024062
 N          2.0203109400       -0.6694383267       -1.2075346266
 C          1.2466744808       -1.1774409913       -2.2120218746
 N          1.9052075367       -1.7611332542       -3.1636223891
 C          3.2224984166       -1.6569678728       -2.7956665022
 C          3.3168290531       -0.9795768653       -1.5537951389
 C          4.6043577637       -0.7894069996       -1.0253089058
 C          5.2423987890       -0.2086739388        0.1063876978
 C          6.5841713997       -0.4069290275       -0.0432868367
 N          6.8337480212       -1.0767808007       -1.2013236367
 C          5.6542579552       -1.3268557543       -1.8265592314
 N          5.5609088511       -1.9709350861       -2.9926726159
 C          4.3470525362       -2.1396111974       -3.4676482949
 H          3.1491945083        1.4363137647       -0.1186129534
 H          1.6388698891        1.9950028151       -0.8406354059
 H          2.2195444108        3.1360735420        1.3279421525
 H          0.6584875923        2.2820583047        1.4425994363
 H          2.4180618807       -0.4197737188        3.3309706898
 H          0.7890299906        0.0479929624        2.8161991723
 H          1.5254311146       -1.7099913588        1.3367784564
 H          3.1090403546       -0.9680377033        1.1230173536
 H          0.1802883744       -1.1036229428       -2.2280339932
 H          4.8025511320        0.2974564423        0.9427420543
 H          7.3777753895       -0.1076342965        0.6115540017
 H          4.2563024899       -2.6588430441       -4.4093780608
 H          7.7348106612       -1.3525117697       -1.5536393747
 H         -0.3814176173        0.6109170507       -0.8139523855
 H         -0.3853248539       -1.0116682935       -0.0940671158
 H         -0.3662305421        0.4144209592        0.9320559398
 H          3.0790900936        0.3072193839        4.6156270456
 H          4.5135443438        1.2412588408        5.0926452725
 H          4.6945915122       -0.1310885747        3.9662240197
  42
    -6.134585 !GC
 C          0.0000000000        0.0000000000        0.0000000000
 C          1.5297470106        0.0000000000        0.0000000000
 C          2.0475311554        1.4489557442        0.0000000000
 C          1.8459941581        2.1366183566        1.3555166792
 N          2.2680783748        1.3422086187        2.4910110180
 C          1.7362826729       -0.0016048444        2.5309574018
 C          2.0595767805       -0.7537492964        1.2416652037
 S          3.7917539468        1.5818052113        3.0987694200
 O          3.6373665419        1.3973188887        4.5212464519
 O          4.8610731421        0.8192997242        2.4628234122
 C          4.0681024392        3.3223268337        2.7818610418
 N          2.0219213428       -0.6790012431       -1.2017315800
 C          1.2491926229       -1.2649963762       -2.1636127361
 N          1.9092688868       -1.7741382884       -3.1561734201
 C          3.2268253204       -1.5231808098       -2.8686111452
 C          3.3197306264       -0.8208851778       -1.6402686623
 C          4.6070968690       -0.4802966856       -1.1938142763
 C          5.2429271722        0.1747548862       -0.1023671757
 C          6.5859643230        0.1399243463       -0.3404644145
 N          6.8386938270       -0.4985013882       -1.5156981396
 C          5.6594600157       -0.8903155302       -2.0643015767
 N          5.5681515147       -1.5464975191       -3.2239917016
 C          4.3539692592       -1.8531122594       -3.6237529679
 H          3.1064167630        1.4542569943       -0.2449115840
 H          1.5214849354        2.0207811138       -0.7657775457
 H          2.4176587996        3.0621094520        1.3671156612
 H          0.7903000781        2.3776607162        1.5055314077
 H          2.2220125061       -0.4920422432        3.3756574231
 H          0.6605960781        0.0527464443        2.7081439188
 H          1.6306524232       -1.7561554214        1.2798992878
 H          3.1452947502       -0.8572137818        1.1738280274
 H          0.1824671960       -1.3134588628       -2.1125998045
 H          4.8007532948        0.6268339117        0.7631147403
 H          7.3782666876        0.5352527515        0.2630158573
 H          4.2643900932       -2.3830425381       -4.5596665838
 H          7.7417196242       -0.6625784984       -1.9283048283
 H         -0.3885605985        0.4587251793       -0.9050579657
 H         -0.3851840543       -1.0123423276        0.0878312513
 H         -0.3594091409        0.5717080552        0.8480973724
 H          4.5380628521        3.7020474944        3.6795146899
 H          3.1007070011        3.7816728365        2.6379705829
 H          4.7121121907        3.4419540429        1.9229053167
  42
    -6.130941 !GC
 C          0.0000000000        0.0000000000        0.0000000000
 C          1.5297454966        0.0000000000        0.0000000000
 C          2.0614667451        1.4445686030        0.0000000000
 C          1.7399390291        2.1579457963        1.3115004429
 N          2.2722443311        1.4274761176        2.4399162281
 C          1.8502778960        0.0446803528        2.5319657585
 C          2.0493562696       -0.7589143365        1.2413655463
 S          3.7960691369        1.8233216403        2.9598053676
 O          4.8668405530        1.6560275016        1.9828868932
 O          3.6471314829        3.1439863442        3.5209551488
 C          4.0630363449        0.6656277700        4.3000318762
 N          2.0221144260       -0.6688537668       -1.2073631922
 C          1.2493481718       -1.1836957246       -2.2091969293
 N          1.9090481668       -1.7696533378       -3.1587103238
 C          3.2263100654       -1.6596802836       -2.7920904785
 C          3.3194296622       -0.9745065989       -1.5542438318
 C          4.6067955380       -0.7716408943       -1.0307644811
 C          5.2432928972       -0.1737397539        0.0926370520
 C          6.5859630901       -0.3633469183       -0.0587640353
 N          6.8378240506       -1.0448895753       -1.2097378869
 C          5.6583314029       -1.3108589363       -1.8287059706
 N          5.5662238349       -1.9665765416       -2.9884379271
 C          4.3523939794       -2.1436441513       -3.4608678422
 H          3.1470413740        1.4395399863       -0.1248432477
 H          1.6317588954        1.9965684481       -0.8372312585
 H          2.2260362630        3.1343031135        1.3302740422
 H          0.6643617711        2.2820987125        1.4502130111
 H          2.4241019736       -0.4249452057        3.3280864892
 H          0.7951323880        0.0484827858        2.8179101984
 H          1.5224667186       -1.7095467112        1.3345791442
 H          3.1078534752       -0.9720904618        1.1177906790
 H          0.1827957004       -1.1123127694       -2.2252871879
 H          4.8017612546        0.3391532384        0.9240109981
 H          7.3783688730       -0.0493950503        0.5906065960
 H          4.2625030434       -2.6698844376       -4.3987817346
 H          7.7403606825       -1.3166221304       -1.5621453837
 H         -0.3849342149        0.6023033722       -0.8185239765
 H         -0.3893172935       -1.0113817892       -0.0790931952
 H         -0.3590171250        0.4270134350        0.9295124497
 H          3.1143731947        0.2654428220        4.6237236542
 H          4.5888831123        1.1927091334        5.0832928648
 H          4.6966269762       -0.1110212544        3.8892432958
  42
    -6.078057 !GC
 C          0.0000000000        0.0000000000        0.0000000000
 C          1.5295654582        0.0000000000        0.0000000000
 C          2.0628586487        1.4435712773        0.0000000000
 C          1.7309347982        2.1599269071        1.3073202004
 N          2.2557352365        1.4326261351        2.4411650354
 C          1.8395106667        0.0482634515        2.5330687439
 C          2.0483803270       -0.7565428312        1.2447111654
 S          3.7700126669        1.8405731256        2.9779408839
 O          4.8512931476        1.7081418488        2.0068911922
 O          3.5958571703        3.1474746126        3.5638951012
 C          4.0428563301        0.6615653827        4.2982603200
 N          2.0208082201       -0.6701971469       -1.2070242473
 C          1.2480879518       -1.1772615365       -2.2125749441
 N          1.9071568807       -1.7620337203       -3.1632179602
 C          3.2240766469       -1.6598245321       -2.7932003724
 C          3.3176484938       -0.9820613601       -1.5506771474
 C          4.6040604936       -0.7929482624       -1.0194848444
 C          5.2394993848       -0.2114398676        0.1131125132
 C          6.5812685380       -0.4116261049       -0.0324584759
 N          6.8337787768       -1.0836443516       -1.1888333505
 C          5.6554635495       -1.3330631209       -1.8170852404
 N          5.5638003926       -1.9781208383       -2.9829694149
 C          4.3507451016       -2.1437248686       -3.4615938006
 H          3.1495587698        1.4367597244       -0.1158655610
 H          1.6408327498        1.9940487242       -0.8421018029
 H          2.2169642504        3.1362849877        1.3274451600
 H          0.6543189292        2.2839560520        1.4376798370
 H          2.4117030262       -0.4178487923        3.3323559550
 H          0.7830936491        0.0478225085        2.8142668492
 H          1.5259835658       -1.7097349860        1.3371356623
 H          3.1085675423       -0.9642527034        1.1262534531
 H          0.1818517043       -1.1015847580       -2.2302728672
 H          4.7985725204        0.2966835198        0.9475957134
 H          7.3722798711       -0.1115355727        0.6251105807
 H          4.2614811203       -2.6627532794       -4.4036592318
 H          7.7360851015       -1.3601520661       -1.5380341076
 H         -0.3881060110        0.6096795091       -0.8112298254
 H         -0.3812510334       -1.0135271400       -0.0927122052
 H         -0.3634978501        0.4119319953        0.9344305293
 H          3.0991120420        0.2396295816        4.6072918668
 H          4.5536938465        1.1823638419        5.0950893959
 H          4.6929991352       -0.0966527126        3.8798400598
  42
    -6.050145 !GC
 C          0.0000000000        0.0000000000        0.0000000000
 C          1.5296732037        0.0000000000        0.0000000000
 C          2.0616806733        1.4444070170        0.0000000000
 C          1.7341679060        2.1592434988        1.3091976223
 N          2.2617150800        1.4305501195        2.4409640980
 C          1.8429090736        0.0467164143        2.5321127128
 C          2.0494232614       -0.7572137048        1.2428617400
 S          3.7810107565        1.8311846031        2.9696678776
 O          4.8581954585        1.6694741942        1.9984799329
 O          3.6237252910        3.1509952396        3.5312157972
 C          4.0437807425        0.6741010788        4.3112627408
 N          2.0213625489       -0.6683472629       -1.2078860570
 C          1.2486029913       -1.1833524829       -2.2094653851
 N          1.9074640117       -1.7792920166       -3.1532809590
 C          3.2241572943       -1.6769034546       -2.7824246562
 C          3.3173441867       -0.9872982046       -1.5480396101
 C          4.6046826600       -0.7888817034       -1.0227146553
 C          5.2426697170       -0.1827219601        0.0954172984
 C          6.5841579577       -0.3850607426       -0.0493600390
 N          6.8341094730       -1.0822969149       -1.1912686697
 C          5.6544052889       -1.3446148421       -1.8117049403
 N          5.5604017551       -2.0106398417       -2.9655215581
 C          4.3468504892       -2.1796477489       -3.4417949143
 H          3.1478380724        1.4387932054       -0.1200494696
 H          1.6358559133        1.9949671459       -0.8401399323
 H          2.2196121598        3.1358759023        1.3289777141
 H          0.6579511442        2.2831489431        1.4429546866
 H          2.4144910155       -0.4211527904        3.3308716303
 H          0.7865464561        0.0479488152        2.8135083468
 H          1.5260899227       -1.7098614766        1.3354514858
 H          3.1092137240       -0.9659671832        1.1229587140
 H          0.1826303312       -1.1043669097       -2.2300022403
 H          4.8033757891        0.3441636653        0.9190418977
 H          7.3767640183       -0.0701359773        0.5993196875
 H          4.2562296757       -2.7139598288       -4.3751180136
 H          7.7357252887       -1.3639864601       -1.5382096902
 H         -0.3885972054        0.5986394054       -0.8192427338
 H         -0.3814517967       -1.0146498548       -0.0787291244
 H         -0.3629264490        0.4245959632        0.9289794354
 H          4.6602724159       -0.1420601541        3.9628752764
 H          3.0581865676        0.3392529686        4.6001171868
 H          4.5337976364        1.2070032085        5.1145730258
  42
    -6.047790 !GC
 C          0.0000000000        0.0000000000        0.0000000000
 C          1.5297116842        0.0000000000        0.0000000000
 C          2.0472802849        1.4490742821        0.0000000000
 C          1.8469960205        2.1362487346        1.3560066255
 N          2.2674456066        1.3411267025        2.4916252658
 C          1.7347771292       -0.0022653859        2.5311735066
 C          2.0587933971       -0.7540523293        1.2420471742
 S          3.7906569784        1.5805961541        3.1010864563
 O          3.6400127298        1.3764814470        4.5212798419
 O          4.8626063378        0.8327109589        2.4526375076
 C          4.0567085455        3.3267778050        2.8072730535
 N          2.0220310330       -0.6801642981       -1.2010819871
 C          1.2492870075       -1.2661285154       -2.1629539152
 N          1.9087655154       -1.7672492265       -3.1600023768
 C          3.2259108020       -1.5105773674       -2.8756239967
 C          3.3189775700       -0.8129082427       -1.6450308494
 C          4.6062056353       -0.4695098273       -1.2005444050
 C          5.2426068085        0.1796096999       -0.1059116178
 C          6.5848911947        0.1535620492       -0.3490825352
 N          6.8367143679       -0.4728749213       -1.5309971400
 C          5.6574814221       -0.8665748866       -2.0784160003
 N          5.5652533062       -1.5141602500       -3.2428958922
 C          4.3512307178       -1.8259286379       -3.6393815948
 H          3.1058882247        1.4553932615       -0.2457482005
 H          1.5204014080        2.0212095684       -0.7649429690
 H          2.4208886570        3.0604418235        1.3677526135
 H          0.7917853495        2.3796864225        1.5056681304
 H          2.2198895738       -0.4932264277        3.3758879576
 H          0.6590385332        0.0524863482        2.7077505515
 H          1.6306034646       -1.7568299569        1.2797032062
 H          3.1446597107       -0.8566570644        1.1746131202
 H          0.1828415479       -1.3185444235       -2.1096359596
 H          4.8015431074        0.6208010898        0.7657517433
 H          7.3771028836        0.5474329843        0.2554804556
 H          4.2604957911       -2.3493806169       -4.5788174222
 H          7.7391421853       -0.6277767872       -1.9486035326
 H         -0.3889896567        0.4584329734       -0.9050271686
 H         -0.3851408180       -1.0123101547        0.0884364173
 H         -0.3589930046        0.5719315319        0.8480868198
 H          3.0721118332        3.7483897998        2.6656365733
 H          4.6763431872        3.4502932463        1.9305874880
 H          4.5440137304        3.7373722920        3.6812941237
  42
    -6.000550 !GC
 C          0.0000000000        0.0000000000        0.0000000000
 C          1.5295614209        0.0000000000        0.0000000000
 C          2.0621858288        1.4438192430        0.0000000000
 C          1.7326695210        2.1593321990        1.3084506690
 N          2.2593395145        1.4312941074        2.4409520779
 C          1.8424436692        0.0472149148        2.5329694180
 C          2.0492236055       -0.7569827152        1.2439182906
 S          3.7743369942        1.8382720634        2.9763153261
 O          4.8552508633        1.6986362384        2.0060092394
 O          3.6036216792        3.1481164063        3.5566578764
 C          4.0424417840        0.6642942473        4.3020408799
 N          2.0207666715       -0.6707279410       -1.2067244186
 C          1.2476387695       -1.1802440204       -2.2107998975
 N          1.9070800539       -1.7565895285       -3.1662618916
 C          3.2247335882       -1.6448041268       -2.8018534309
 C          3.3187211514       -0.9690836104       -1.5579909729
 C          4.6060764087       -0.7715053888       -1.0319659535
 C          5.2419705785       -0.1939813778        0.1025106542
 C          6.5850079418       -0.3787488559       -0.0525721373
 N          6.8375515610       -1.0373699045       -1.2165196442
 C          5.6584047514       -1.2943136439       -1.8398056469
 N          5.5669884054       -1.9325133607       -3.0093913951
 C          4.3529160635       -2.1105087850       -3.4807159259
 H          3.1486248234        1.4380876087       -0.1178208198
 H          1.6381536828        1.9946332289       -0.8409064024
 H          2.2191945211        3.1353938021        1.3281474786
 H          0.6563457346        2.2838258228        1.4409312604
 H          2.4157891544       -0.4194337554        3.3311887090
 H          0.7863955759        0.0473325375        2.8157151226
 H          1.5265238534       -1.7100233771        1.3366916899
 H          3.1092054303       -0.9652220529        1.1235853073
 H          0.1808453937       -1.1119409976       -2.2239744493
 H          4.8002118537        0.3008097468        0.9445902559
 H          7.3771301939       -0.0772694520        0.6030832158
 H          4.2633393756       -2.6245649881       -4.4254700938
 H          7.7405408494       -1.3015113966       -1.5731810947
 H         -0.3877102037        0.6058574911       -0.8143710689
 H         -0.3816104218       -1.0138290161       -0.0879840386
 H         -0.3633659648        0.4166621354        0.9324519084
 H          4.6839691881       -0.1158707103        3.9180013741
 H          3.0900276873        0.2678662871        4.6244895433
 H          4.5229946930        1.2204450170        5.0955043664
  42
    -5.988216 !GC
 C          0.0000000000        0.0000000000        0.0000000000
 C          1.5294601098        0.0000000000        0.0000000000
 C          2.0525833172        1.4464437353        0.0000000000
 C          1.8181960614        2.1481972528        1.3415811289
 N          2.2486575003        1.3651518098        2.4812019425
 C          1.7456894319        0.0117396601        2.5309470040
 C          2.0542554547       -0.7523381361        1.2437391444
 S          3.7391405643        1.7066248107        3.1174895385
 O          3.7332802642        1.1480561222        4.4492197512
 O          4.8636848890        1.3428151990        2.2654350944
 C          3.6863073918        3.4889290363        3.2543422047
 N          2.0175443821       -0.6740120477       -1.2060601012
 C          1.2406357547       -1.2313156386       -2.1817963121
 N          1.8993593256       -1.7866529191       -3.1500709278
 C          3.2200832865       -1.6056775962       -2.8273321809
 C          3.3176677805       -0.9023608173       -1.5990873515
 C          4.6089207445       -0.6292756762       -1.1183972303
 C          5.2494019709        0.0049782200       -0.0172509701
 C          6.5946288378       -0.1128413516       -0.2128440841
 N          6.8443012942       -0.7836838130       -1.3703161189
 C          5.6610494687       -1.1128688939       -1.9505699801
 N          5.5664748150       -1.7761970872       -3.1058458154
 C          4.3490106518       -2.0174513020       -3.5390495745
 H          3.1206998224        1.4496061664       -0.2077702267
 H          1.5554469413        2.0126105374       -0.7890607985
 H          2.3861610321        3.0767434963        1.3464721140
 H          0.7586841644        2.3782984286        1.4780056313
 H          2.2479735836       -0.4668773587        3.3720800247
 H          0.6715574175        0.0499984304        2.7235102726
 H          1.6086536716       -1.7469380240        1.2917387505
 H          3.1362684032       -0.8761092219        1.1693909251
 H          0.1719463907       -1.2169133319       -2.1624900001
 H          4.8098173100        0.4990463117        0.8265918936
 H          7.3902622760        0.2448282241        0.4094915372
 H          4.2571087880       -2.5514523199       -4.4723578908
 H          7.7479895724       -1.0060904092       -1.7526354398
 H         -0.3990441842       -1.0087727206        0.0403096836
 H         -0.3536327549        0.5662343353        0.8622093662
 H         -0.3797660335        0.4906084279       -0.8852565881
 H          4.3669295817        3.8003748562        4.0309323383
 H          2.6608570051        3.7412219317        3.4874966348
 H          3.9608059220        3.8967646135        2.2912469153
  42
    -5.890001 !GC
 C          0.0000000000        0.0000000000        0.0000000000
 C          1.5294934176        0.0000000000        0.0000000000
 C          2.0524654647        1.4464581477        0.0000000000
 C          1.8166604508        2.1482427294        1.3412443536
 N          2.2480533466        1.3658119401        2.4809104320
 C          1.7463803066        0.0119357256        2.5310153597
 C          2.0540598153       -0.7524022422        1.2436074514
 S          3.7377279084        1.7097032472        3.1177165316
 O          3.7317058406        1.1520103285        4.4498348935
 O          4.8630462976        1.3470166267        2.2662249011
 C          3.6826344964        3.4920423246        3.2532207023
 N          2.0178728313       -0.6738566414       -1.2060142795
 C          1.2410783893       -1.2286639713       -2.1832832645
 N          1.8998837518       -1.7855867227       -3.1505945141
 C          3.2205396693       -1.6089491462       -2.8252627872
 C          3.3179842250       -0.9057435402       -1.5970283819
 C          4.6091827302       -0.6363683957       -1.1141551735
 C          5.2494932050       -0.0029495907       -0.0124629665
 C          6.5947070421       -0.1260272409       -0.2048479516
 N          6.8445309898       -0.7991134024       -1.3610448496
 C          5.6613542447       -1.1245280348       -1.9436247198
 N          5.5668589734       -1.7882013808       -3.0987379807
 C          4.3494282144       -2.0251346188       -3.5344644070
 H          3.1207905915        1.4498628070       -0.2065846981
 H          1.5560572328        2.0122174747       -0.7898114771
 H          2.3833150026        3.0775970347        1.3460018716
 H          0.7567947103        2.3768428161        1.4773323303
 H          2.2498404523       -0.4662859314        3.3716851039
 H          0.6723961596        0.0493517368        2.7247585347
 H          1.6073741589       -1.7465864190        1.2916646445
 H          3.1359359459       -0.8771384757        1.1688084673
 H          0.1724143169       -1.2109161964       -2.1661246301
 H          4.8096344792        0.4941567712        0.8294521144
 H          7.3902979362        0.2293811029        0.4188525431
 H          4.2574659634       -2.5591255333       -4.4677807253
 H          7.7482291189       -1.0249513513       -1.7414377351
 H         -0.3677281492        0.5447256654        0.8689262292
 H         -0.3742615848        0.4827365656       -0.8996356194
 H         -0.3907155779       -1.0065719428        0.0287449562
 H          4.3739550350        3.8058474082        4.0192808424
 H          2.6602880991        3.7425218137        3.5012307657
 H          3.9422355728        3.8993138285        2.2858218963
  42
    -5.877672 !GC
 C          0.0000000000        0.0000000000        0.0000000000
 C          1.5297803184        0.0000000000        0.0000000000
 C          2.0480400124        1.4486813361        0.0000000000
 C          1.8445816494        2.1367811779        1.3549489989
 N          2.2667860500        1.3428880716        2.4906685371
 C          1.7364870646       -0.0014709494        2.5310438540
 C          2.0592148990       -0.7535966201        1.2414888557
 S          3.7894161552        1.5834478636        3.1007828151
 O          3.6278535319        1.4197919710        4.5249198524
 O          4.8587176014        0.8083733548        2.4801043404
 C          4.0739335904        3.3182354778        2.7610539605
 N          2.0217342617       -0.6791611519       -1.2016720726
 C          1.2487974814       -1.2634746922       -2.1643277563
 N          1.9085668936       -1.7706141595       -3.1580729094
 C          3.2261877860       -1.5202187931       -2.8704044588
 C          3.3194699644       -0.8207259174       -1.6406823457
 C          4.6071860071       -0.4828102510       -1.1930920690
 C          5.2439660831        0.1670035370       -0.0989765448
 C          6.5869074824        0.1327749652       -0.3380649514
 N          6.8385968667       -0.5004325091       -1.5162405339
 C          5.6589735530       -0.8896294494       -2.0657301480
 N          5.5668554616       -1.5415505057       -3.2276968289
 C          4.3525591511       -1.8473806848       -3.6275587181
 H          3.1074112135        1.4536968532       -0.2431133855
 H          1.5233944064        2.0202426928       -0.7669172253
 H          2.4152394211        3.0628852145        1.3665190530
 H          0.7884646830        2.3764586071        1.5041211816
 H          2.2242534685       -0.4912418149        3.3749772378
 H          0.6609828510        0.0512890655        2.7097474674
 H          1.6297870512       -1.7557769433        1.2794568643
 H          3.1448358177       -0.8579327888        1.1740648193
 H          0.1820418047       -1.3117417318       -2.1132650351
 H          4.8026603207        0.6153673878        0.7690348971
 H          7.3796239878        0.5257836477        0.2664484481
 H          4.2626090414       -2.3744441785       -4.5650801046
 H          7.7411484803       -0.6630867485       -1.9298007655
 H         -0.3886840250        0.4623924558       -0.9031117090
 H         -0.3851860501       -1.0126428744        0.0835183452
 H         -0.3595843318        0.5680190031        0.8504426981
 H          3.1121811209        3.7703560857        2.5657801804
 H          4.7197635400        3.3402715730        1.8953073333
 H          4.5487621609        3.7821537086        3.6151877666
  42
    -5.843817 !GC
 C          0.0000000000        0.0000000000        0.0000000000
 C          1.5297113057        0.0000000000        0.0000000000
 C          2.0465182328        1.4491790722        0.0000000000
 C          1.7370634604        2.1610873814        1.3163251336
 N          2.2333104684        1.4364469867        2.4661857530
 C          1.8154169333        0.0549317074        2.5590144846
 C          2.0663270377       -0.7197749189        1.2624740908
 S          3.7357228567        1.7813968189        3.0699583352
 O          3.7257963765        1.4039067028        4.4629620789
 O          4.8247194781        1.2331107190        2.2684326385
 C          3.7890927859        3.5687745911        2.9604189969
 N          2.0227426134       -0.6695097789       -1.2066673816
 C          1.2567656985       -1.1737068596       -2.2200651859
 N          1.9273269000       -1.7450603898       -3.1715453739
 C          3.2424996497       -1.6304746649       -2.7971631775
 C          3.3255344074       -0.9463537144       -1.5600519468
 C          4.6116262136       -0.7136312867       -1.0446401763
 C          5.2432921294       -0.0876050132        0.0661328900
 C          6.5888305519       -0.2496637195       -0.0936196844
 N          6.8467450307       -0.9384136737       -1.2386087192
 C          5.6695464153       -1.2348539176       -1.8471694348
 N          5.5841451260       -1.8953633144       -3.0046914297
 C          4.3728602705       -2.0873647739       -3.4770307430
 H          3.1268563149        1.4520927412       -0.1468436898
 H          1.5933386159        2.0047463453       -0.8223874863
 H          2.2366680608        3.1303839769        1.3326076759
 H          0.6599102121        2.2993720569        1.4387748029
 H          2.4007083920       -0.4105958888        3.3505327174
 H          0.7582089042        0.0482433840        2.8309114071
 H          1.5953146598       -1.7015305026        1.3265323856
 H          3.1403428296       -0.8685368006        1.1486206824
 H          0.1908587917       -1.0881177337       -2.2560988526
 H          4.7976397164        0.4302624814        0.8919518919
 H          7.3790439402        0.0889523560        0.5460511804
 H          4.2878011688       -2.6130390234       -4.4155705182
 H          7.7525397855       -1.1916405310       -1.5961116651
 H         -0.3830768436        0.5554278667       -0.8520619603
 H         -0.3894798953       -1.0136550282       -0.0244941836
 H         -0.3616069486        0.4791870800        0.9026349984
 H          4.2052057031        3.8123888925        1.9930977232
 H          4.4447205279        3.9105222381        3.7480046826
 H          2.7876570381        3.9574827420        3.0949807988
  42
    -5.503145 !GC
 C          0.0000000000        0.0000000000        0.0000000000
 C          1.5299209931        0.0000000000        0.0000000000
 C          2.0505938018        1.4476821113        0.0000000000
 C          1.7765953038        2.1662077119        1.3248644026
 N          2.2731232455        1.4314496435        2.4684533613
 C          1.8136913462        0.0634260440        2.5702263441
 C          2.0549104091       -0.7312556245        1.2864698233
 S          3.7898180142        1.8090755029        3.0198026163
 O          3.7122070264        1.8664009238        4.4601387009
 O          4.8350904767        0.9548404814        2.4679711996
 C          4.0101986229        3.4828863011        2.4232230879
 N          2.0219719559       -0.6752487602       -1.2035821399
 C          1.2495544072       -1.2086031674       -2.1957448764
 N          1.9117871895       -1.7579103180       -3.1650117890
 C          3.2309939672       -1.5948258874       -2.8270390487
 C          3.3236723818       -0.9080010838       -1.5880766453
 C          4.6121277611       -0.6497130838       -1.0923058437
 C          5.2462844897       -0.0313276456        0.0212711576
 C          6.5924186524       -0.1575282378       -0.1621462222
 N          6.8486109172       -0.8183445609       -1.3242753660
 C          5.6686055132       -1.1322681937       -1.9193307886
 N          5.5800612375       -1.7819034878       -3.0827223570
 C          4.3650877893       -2.0079673905       -3.5309499372
 H          3.1260817677        1.4454198903       -0.1764670111
 H          1.5767581058        1.9994638380       -0.8132483360
 H          2.2815270689        3.1300081794        1.3293359038
 H          0.7040720040        2.3239668666        1.4459061770
 H          2.3706067896       -0.4022591227        3.3843751416
 H          0.7534739853        0.1010976453        2.8375056597
 H          1.5768539381       -1.7083149300        1.3701121147
 H          3.1272062077       -0.8928370953        1.1766171995
 H          0.1810988066       -1.1833811120       -2.1877885280
 H          4.8007762612        0.4580190108        0.8646689175
 H          7.3846599757        0.1869302832        0.4718626476
 H          4.2787272927       -2.5283129492       -4.4725076722
 H          7.7542439524       -1.0456871658       -1.6989265733
 H         -0.3856459224        0.5459269419       -0.8567188168
 H         -0.3859310711       -1.0155968196       -0.0141529528
 H         -0.3628306944        0.4831752045        0.8999752041
 H          4.3108604008        4.1198617572        3.2408649455
 H          3.0475798841        3.7710559731        2.0223046309
 H          4.7410041616        3.4546573042        1.6262935611
  42
    -5.425457 !GC
 C          0.0000000000        0.0000000000        0.0000000000
 C          1.5294871093        0.0000000000        0.0000000000
 C          2.0571140699        1.4460432737        0.0000000000
 C          1.8029632075        2.1302361484        1.3432711112
 N          2.2640528801        1.3414854109        2.4657149410
 C          1.7722793244       -0.0196428272        2.5080273919
 C          2.0572777085       -0.7919342557        1.2161310441
 S          3.7949980814        1.6115888433        3.0434959076
 O          4.8156214099        1.5903783769        2.0019552058
 O          3.7344766956        2.8096548733        3.8464323655
 C          4.0444352327        0.2277516839        4.1526527332
 N          2.0224672180       -0.6740202347       -1.2039270459
 C          1.2491241601       -1.2332807041       -2.1811368812
 N          1.9105846363       -1.7820222998       -3.1512177533
 C          3.2302751453       -1.5948446029       -2.8276288279
 C          3.3238843848       -0.8947609703       -1.5961300355
 C          4.6128047815       -0.6176664184       -1.1120502054
 C          5.2477810257        0.0103675302       -0.0043927697
 C          6.5939510117       -0.0954610199       -0.2002406760
 N          6.8492995653       -0.7515497763       -1.3650755057
 C          5.6687721162       -1.0866706279       -1.9474861586
 N          5.5794712587       -1.7450672040       -3.1059727768
 C          4.3638959334       -1.9955971426       -3.5392945884
 H          3.1302502269        1.4478975895       -0.1900210183
 H          1.5763671806        2.0182085095       -0.7948585076
 H          2.3503477336        3.0734908999        1.3693953677
 H          0.7395169151        2.3276165087        1.5084452611
 H          2.2735168411       -0.5059386872        3.3424253169
 H          0.6980533480        0.0013187988        2.6962804741
 H          1.5839328384       -1.7734481799        1.2703000004
 H          3.1336385833       -0.9416660478        1.1337095977
 H          0.1805335930       -1.2255344978       -2.1625820920
 H          4.8029103075        0.4855639374        0.8474821848
 H          7.3868179353        0.2604234095        0.4266748131
 H          4.2765279410       -2.5284379875       -4.4738279822
 H          7.7546848931       -0.9636606352       -1.7490933754
 H         -0.3849630882        0.5256651989       -0.8696740077
 H         -0.3857675857       -1.0158119419        0.0100292603
 H         -0.3625675491        0.5083877800        0.8861405882
 H          3.1164826482       -0.3107958266        4.2689238413
 H          4.4289988890        0.6222872289        5.0823736747
 H          4.7991349220       -0.3898427419        3.6812097489
  42
    -5.369850 !GC
 C          0.0000000000        0.0000000000        0.0000000000
 C          1.5297905378        0.0000000000        0.0000000000
 C          2.0507528135        1.4475012708        0.0000000000
 C          1.7995390222        2.1523274232        1.3368844582
 N          2.2739565575        1.3795131274        2.4641548534
 C          1.7888199371        0.0180395020        2.5238996397
 C          2.0578864111       -0.7550246386        1.2329550292
 S          3.8088146030        1.6756686239        3.0130728170
 O          4.8057408036        1.6900178616        1.9477590796
 O          3.7454123553        2.8587450381        3.8364877758
 C          4.1074726370        0.2745882988        4.0876506153
 N          2.0228408471       -0.6732826381       -1.2047164687
 C          1.2504803647       -1.2204610872       -2.1893057552
 N          1.9132777646       -1.7664340115       -3.1602727372
 C          3.2328968362       -1.5864605844       -2.8308828213
 C          3.3250288868       -0.8948530094       -1.5952085769
 C          4.6133557307       -0.6235499938       -1.1059166495
 C          5.2474807933        0.0009388033        0.0044539658
 C          6.5938076697       -0.1115384710       -0.1868706034
 N          6.8499962643       -0.7687816620       -1.3508147036
 C          5.6701274280       -1.0954187635       -1.9389840736
 N          5.5816057430       -1.7490002245       -3.1003535150
 C          4.3667143337       -1.9901495571       -3.5404505181
 H          3.1236258475        1.4453278623       -0.1911779152
 H          1.5666633116        2.0065904883       -0.8021019587
 H          2.3400672715        3.0961535454        1.3289212367
 H          0.7369928916        2.3476146767        1.4905127005
 H          2.3070055310       -0.4486038313        3.3630793838
 H          0.7173296079        0.0472153731        2.7403207679
 H          1.5821579929       -1.7348631691        1.2944862698
 H          3.1324653566       -0.9117426554        1.1402121364
 H          0.1814465973       -1.2078626519       -2.1727497283
 H          4.8021754616        0.4850466026        0.8506691781
 H          7.3864624449        0.2412792170        0.4419343865
 H          4.2795658955       -2.5180420832       -4.4777145683
 H          7.7558692166       -0.9851577797       -1.7314532613
 H         -0.3837542309        0.5191021781       -0.8742133345
 H         -0.3866445771       -1.0154609460        0.0178773204
 H         -0.3626415993        0.5129865813        0.8833746310
 H          3.1636714347       -0.2343691140        4.2215343041
 H          4.4358998072        0.7018409108        5.0259050202
 H          4.8676641074       -0.3630372036        3.6604701672
  42
    -5.341000 !GC
 C          0.0000000000        0.0000000000        0.0000000000
 C          1.5298516020        0.0000000000        0.0000000000
 C          2.0512012470        1.4473921031        0.0000000000
 C          1.7794923244        2.1649001159        1.3258949004
 N          2.2768451706        1.4291038432        2.4685309273
 C          1.8152982337        0.0617841889        2.5712690910
 C          2.0544155340       -0.7343370624        1.2880634262
 S          3.7957881921        1.8031304915        3.0164377555
 O          3.7224137354        1.8570158885        4.4571058968
 O          4.8381412048        0.9487121500        2.4594830253
 C          4.0175774912        3.4781792929        2.4245794736
 N          2.0220030979       -0.6752675878       -1.2035323145
 C          1.2492933398       -1.2101421851       -2.1946812827
 N          1.9112491847       -1.7580740240       -3.1649217364
 C          3.2306468136       -1.5922378576       -2.8287335913
 C          3.3236341411       -0.9057596758       -1.5895659841
 C          4.6122822388       -0.6458476217       -1.0950334378
 C          5.2468258002       -0.0279126789        0.0185829512
 C          6.5929539219       -0.1510712647       -0.1669920935
 N          6.8488093033       -0.8095967318       -1.3304746548
 C          5.6685650963       -1.1256075126       -1.9239375093
 N          5.5797489784       -1.7742908045       -3.0878336606
 C          4.3646228262       -2.0026831162       -3.5343571036
 H          3.1264145935        1.4449248317       -0.1780727656
 H          1.5764242972        1.9998548320       -0.8122184411
 H          2.2851488883        3.1283219590        1.3303006980
 H          0.7072491099        2.3233860718        1.4483917040
 H          2.3718583578       -0.4042573176        3.3854610206
 H          0.7552842934        0.1011941934        2.8391720078
 H          1.5742818260       -1.7103048919        1.3724385332
 H          3.1262699964       -0.8982690383        1.1780122619
 H          0.1808403996       -1.1870384299       -2.1852275288
 H          4.8016428565        0.4588997899        0.8635895856
 H          7.3854129820        0.1943132751        0.4662310067
 H          4.2780738866       -2.5222560898       -4.4763142642
 H          7.7543035562       -1.0348902596       -1.7066607308
 H         -0.3855729550        0.5442865659       -0.8577953496
 H         -0.3856963002       -1.0157461064       -0.0123161450
 H         -0.3628040070        0.4848178363        0.8991191870
 H          3.0629022764        3.8165423677        2.0483957145
 H          4.7591110991        3.4101693727        1.6416951627
 H          4.3595846486        4.1079039676        3.2344911910
  42
    -5.340534 !GC
 C          0.0000000000        0.0000000000        0.0000000000
 C          1.5297407023        0.0000000000        0.0000000000
 C          2.0575809897        1.4463746510        0.0000000000
 C          1.7871562953        2.1411109820        1.3345914470
 N          2.2725133945        1.3762496894        2.4619254379
 C          1.7976552263        0.0117989487        2.5312687715
 C          2.0483578269       -0.7583791544        1.2304607386
 S          3.8059069285        1.6525287704        3.0225916826
 O          3.7280395106        1.7256632619        4.4616366966
 O          4.7917285658        0.7236143485        2.4803021242
 C          4.1432818372        3.3014145647        2.4116381532
 N          2.0226766913       -0.6741703020       -1.2043614796
 C          1.2505053809       -1.2213825291       -2.1890661887
 N          1.9134571688       -1.7651986271       -3.1611933803
 C          3.2330397896       -1.5853530589       -2.8315776927
 C          3.3249472412       -0.8966046653       -1.5944189982
 C          4.6131661354       -0.6259081545       -1.1046578128
 C          5.2468884950       -0.0069290829        0.0089011405
 C          6.5932598707       -0.1137390825       -0.1852827173
 N          6.8497279172       -0.7621535766       -1.3541588600
 C          5.6700763787       -1.0899660030       -1.9420029018
 N          5.5818913259       -1.7376126996       -3.1067751566
 C          4.3669364772       -1.9829146720       -3.5445697138
 H          3.1325389594        1.4491210965       -0.1795985338
 H          1.5836348475        2.0118092978       -0.8036924696
 H          2.3050719763        3.1004048699        1.3780805151
 H          0.7154224215        2.3091751088        1.4714008338
 H          2.3388058885       -0.4888591656        3.3309892301
 H          0.7352763327        0.0397297649        2.7789765449
 H          1.5624906870       -1.7337312601        1.2862997692
 H          3.1209064863       -0.9219262906        1.1285857738
 H          0.1815060712       -1.2080583159       -2.1731386610
 H          4.8011874254        0.4626759581        0.8630154062
 H          7.3859293423        0.2367042205        0.4447507663
 H          4.2798505235       -2.5048167927       -4.4852174798
 H          7.7557614894       -0.9734284755       -1.7377874812
 H         -0.3846211418        0.5555301788       -0.8512682950
 H         -0.3870505093       -1.0155022053       -0.0249930541
 H         -0.3615284577        0.4759290252        0.9046248370
 H          4.5387614201        3.8761499036        3.2364804318
 H          3.2434426487        3.7220791007        1.9908560527
 H          4.9091488908        3.1792972223        1.6558897669
  42
    -5.294576 !GC
 C          0.0000000000        0.0000000000        0.0000000000
 C          1.5296691664        0.0000000000        0.0000000000
 C          2.0610074653        1.4446543870        0.0000000000
 C          1.7359071771        2.1586515485        1.3103167847
 N          2.2653217380        1.4292264094        2.4407365163
 C          1.8458448228        0.0456783227        2.5320128612
 C          2.0502667381       -0.7576503044        1.2420771043
 S          3.7853257965        1.8289004657        2.9680128733
 O          4.8620529629        1.6600010875        1.9976837527
 O          3.6314928451        3.1515133901        3.5238678828
 C          4.0434640398        0.6770241866        4.3149422732
 N          2.0213209985       -0.6688784492       -1.2075870526
 C          1.2481749675       -1.1863345785       -2.2076825888
 N          1.9074672119       -1.7738903259       -3.1563836276
 C          3.2249179017       -1.6619634098       -2.7912014897
 C          3.3185351092       -0.9742983252       -1.5552875448
 C          4.6066579153       -0.7673287874       -1.0349826642
 C          5.2446971623       -0.1649814716        0.0852766779
 C          6.5874903214       -0.3518986362       -0.0689627603
 N          6.8378871453       -1.0358964243       -1.2186491465
 C          5.6575654407       -1.3058279493       -1.8342685454
 N          5.5641665998       -1.9651026654       -2.9919176325
 C          4.3496604505       -2.1465150985       -3.4609194376
 H          3.1468951220        1.4401227067       -0.1220027242
 H          1.6331796628        1.9955461637       -0.8389374648
 H          2.2218457313        3.1349884199        1.3296639724
 H          0.6599890737        2.2830195361        1.4461951785
 H          2.4185801694       -0.4227215481        3.3297060375
 H          0.7898530565        0.0474705065        2.8149588234
 H          1.5266315735       -1.7101459152        1.3350245976
 H          3.1098487500       -0.9669324767        1.1202983431
 H          0.1816116148       -1.1146893896       -2.2236459308
 H          4.8042660134        0.3486954016        0.9166614055
 H          7.3809655246       -0.0354800286        0.5779876592
 H          4.2589861974       -2.6759235841       -4.3970234640
 H          7.7402757472       -1.3052341637       -1.5730409096
 H         -0.3882014851        0.5947761528       -0.8223320829
 H         -0.3818111672       -1.0148864414       -0.0739975150
 H         -0.3627945003        0.4292999081        0.9269366335
 H          4.5472248331        1.2189395974        5.1046449501
 H          4.6780819536       -0.1152324486        3.9439385335
 H          3.0769010063        0.3221622796        4.6411396559
  42
    -5.267574 !GC
 C          0.0000000000        0.0000000000        0.0000000000
 C          1.5297092871        0.0000000000        0.0000000000
 C          2.0574706298        1.4462659327        0.0000000000
 C          1.7889185734        2.1411761576        1.3346790459
 N          2.2744359819        1.3766181035        2.4623089327
 C          1.7986519186        0.0123361284        2.5314391560
 C          2.0484144784       -0.7580686008        1.2306528560
 S          3.8069966156        1.6605754402        3.0222565605
 O          3.7261827844        1.7525417658        4.4599310511
 O          4.7932878346        0.7236395685        2.4950512820
 C          4.1474885732        3.3003620214        2.3892088454
 N          2.0229845904       -0.6740023477       -1.2043423512
 C          1.2504057869       -1.2227349967       -2.1879922505
 N          1.9129868207       -1.7645571408       -3.1613784658
 C          3.2326177465       -1.5816545177       -2.8339253263
 C          3.3250931048       -0.8934136575       -1.5964374093
 C          4.6136866211       -0.6231500280       -1.1072978745
 C          5.2481336253       -0.0061965075        0.0070161200
 C          6.5944141587       -0.1152790328       -0.1866310577
 N          6.8501278619       -0.7617047787       -1.3566823315
 C          5.6701330499       -1.0874120325       -1.9450513771
 N          5.5813167789       -1.7334505479       -3.1107249753
 C          4.3661228162       -1.9775529476       -3.5483433749
 H          3.1321927041        1.4490562545       -0.1808886100
 H          1.5824330745        2.0119667296       -0.8028658730
 H          2.3079497374        3.0999547119        1.3771038118
 H          0.7175384436        2.3103767630        1.4728175527
 H          2.3402188871       -0.4887841720        3.3305173677
 H          0.7362486271        0.0411682360        2.7789350416
 H          1.5622891505       -1.7332336386        1.2870237923
 H          3.1209045480       -0.9217964363        1.1282314553
 H          0.1813822285       -1.2124609537       -2.1700974073
 H          4.8029058649        0.4633723635        0.8613902797
 H          7.3873664103        0.2319718604        0.4449029736
 H          4.2780494390       -2.4990396310       -4.4891414706
 H          7.7558219380       -0.9748276883       -1.7396140638
 H         -0.3861872201        0.5497610489       -0.8541139728
 H         -0.3840244530       -1.0164296317       -0.0188474849
 H         -0.3627263921        0.4812715507        0.9010040013
 H          4.4633947976        3.9422998825        3.1970685291
 H          3.2162287614        3.6338411994        1.9509402109
 H          4.8962092184        3.2046236146        1.6145792665
  42
    -5.243306 !GC
 C          0.0000000000        0.0000000000        0.0000000000
 C          1.5294585959        0.0000000000        0.0000000000
 C          2.0524874840        1.4464773069        0.0000000000
 C          1.8184087337        2.1482360746        1.3415887345
 N          2.2490580100        1.3653542149        2.4812942551
 C          1.7459765484        0.0119403707        2.5309677623
 C          2.0543854169       -0.7523406709        1.2437614058
 S          3.7399671069        1.7065168470        3.1166549758
 O          3.7313158859        1.1543935529        4.4510611136
 O          4.8645397938        1.3357668000        2.2675354629
 C          3.6917670484        3.4896229578        3.2448793485
 N          2.0178305744       -0.6736084141       -1.2061804761
 C          1.2407684821       -1.2307114293       -2.1819496499
 N          1.8993185732       -1.7862260016       -3.1502051057
 C          3.2200746382       -1.6058483809       -2.8273789559
 C          3.3178643975       -0.9024919812       -1.5992345066
 C          4.6092211898       -0.6301592933       -1.1184760541
 C          5.2498996906        0.0040731356       -0.0174321961
 C          6.5950496323       -0.1153644797       -0.2122846836
 N          6.8445379088       -0.7862264946       -1.3698177332
 C          5.6612032841       -1.1145928880       -1.9503889785
 N          5.5663876045       -1.7775515967       -3.1058941698
 C          4.3487903382       -2.0179499105       -3.5392111219
 H          3.1205477930        1.4495254102       -0.2079708647
 H          1.5551871108        2.0126161810       -0.7889792359
 H          2.3861600946        3.0769212939        1.3461160767
 H          0.7589048658        2.3782844142        1.4781928768
 H          2.2482461674       -0.4667009140        3.3721106994
 H          0.6718452522        0.0501738710        2.7236244538
 H          1.6084548945       -1.7468206407        1.2918922097
 H          3.1363801167       -0.8763222963        1.1692688446
 H          0.1720885640       -1.2162368303       -2.1627616812
 H          4.8101566524        0.4992276240        0.8256846428
 H          7.3908089513        0.2415264992        0.4103212803
 H          4.2565619132       -2.5518865328       -4.4725208576
 H          7.7481672572       -1.0094269713       -1.7518301717
 H         -0.3988884521       -1.0087768391        0.0420632065
 H         -0.3537676085        0.5677803421        0.8611264666
 H         -0.3797702244        0.4889915168       -0.8861492624
 H          3.9721337658        3.8883814460        2.2826911084
 H          4.3776431668        3.7677675018        4.0312799561
 H          2.6847163627        3.7819190328        3.5147973945
  42
    -5.239228 !GC
 C          0.0000000000        0.0000000000        0.0000000000
 C          1.5295382064        0.0000000000        0.0000000000
 C          2.0619975014        1.4438508277        0.0000000000
 C          1.7309199223        2.1599116704        1.3077987868
 N          2.2559520758        1.4324534323        2.4413966977
 C          1.8406340767        0.0478574004        2.5331027885
 C          2.0497865123       -0.7562272912        1.2444336597
 S          3.7692715410        1.8409235215        2.9803697897
 O          4.8526026382        1.7035517047        2.0123981423
 O          3.5952617565        3.1499391881        3.5615879089
 C          4.0367323145        0.6659200079        4.3052291905
 N          2.0203166011       -0.6708599894       -1.2068142731
 C          1.2470773349       -1.1813091319       -2.2102457825
 N          1.9064220225       -1.7582931968       -3.1653701570
 C          3.2241382439       -1.6459886403       -2.8014290272
 C          3.3183136941       -0.9689357114       -1.5583350824
 C          4.6058430590       -0.7697918576       -1.0332627583
 C          5.2422623859       -0.1896333516        0.0995876201
 C          6.5852076535       -0.3748420596       -0.0554577835
 N          6.8372998264       -1.0363136441       -1.2178803747
 C          5.6579012734       -1.2941319908       -1.8404500252
 N          5.5662660141       -1.9343766822       -3.0089500424
 C          4.3521314396       -2.1125298651       -3.4800644674
 H          3.1485467828        1.4382786406       -0.1168070888
 H          1.6386878654        1.9942574524       -0.8414871929
 H          2.2171765656        3.1361480360        1.3276961747
 H          0.6544154867        2.2843235137        1.4387044132
 H          2.4136527313       -0.4179879354        3.3319913312
 H          0.7842930505        0.0464671288        2.8145752985
 H          1.5290023061       -1.7103327428        1.3369875722
 H          3.1103117019       -0.9622066785        1.1249858830
 H          0.1803458587       -1.1128126302       -2.2235371312
 H          4.8008674779        0.3073558060        0.9405728554
 H          7.3777026589       -0.0725558996        0.5993458394
 H          4.2623340992       -2.6274300376       -4.4243368180
 H          7.7399076896       -1.3002315257       -1.5755954746
 H         -0.3876760094        0.6036316584       -0.8160156771
 H         -0.3814183061       -1.0140950898       -0.0853368982
 H         -0.3636015417        0.4191029693        0.9312278548
 H          4.5168521943        1.1901739259        5.1163648830
 H          4.6636640128       -0.1214009599        3.9088451464
 H          3.0750372875        0.2555892265        4.5805910993
  42
    -5.219617 !GC
 C          0.0000000000        0.0000000000        0.0000000000
 C          1.5297449920        0.0000000000        0.0000000000
 C          2.0477891981        1.4487999444        0.0000000000
 C          1.8455827027        2.1364110607        1.3554412396
 N          2.2661518622        1.3418017799        2.4912830622
 C          1.7349796236       -0.0021370788        2.5312558914
 C          2.0584312843       -0.7539000617        1.2418638231
 S          3.7883144077        1.5822326389        3.1031020544
 O          3.6304014979        1.3988878428        4.5252463537
 O          4.8603468592        0.8215780740        2.4697402765
 C          4.0625029966        3.3230367481        2.7863674927
 N          2.0218439467       -0.6803241616       -1.2010223450
 C          1.2488937327       -1.2646071654       -2.1636700241
 N          1.9080640429       -1.7637167358       -3.1618865917
 C          3.2252727694       -1.5076007137       -2.8773903945
 C          3.3187113889       -0.8127511781       -1.6454473520
 C          4.6063087937       -0.4720374074       -1.1998504652
 C          5.2436999983        0.1718240309       -0.1025972830
 C          6.5858815187        0.1463811862       -0.3467562162
 N          6.8366233625       -0.4748166857       -1.5315621375
 C          5.6569823496       -0.8658904376       -2.0798445712
 N          5.5639111453       -1.5092002093       -3.2465650498
 C          4.3497709219       -1.8201841988       -3.6431513517
 H          3.1068843359        1.4548328868       -0.2439509340
 H          1.5223098106        2.0206721652       -0.7660840410
 H          2.4184695282        3.0612196693        1.3671626884
 H          0.7899459215        2.3784836352        1.5042589704
 H          2.2221282944       -0.4924353168        3.3752036532
 H          0.6594216627        0.0510223858        2.7093486094
 H          1.6297377421       -1.7564523177        1.2792488821
 H          3.1442011642       -0.8573762822        1.1748437156
 H          0.1824172383       -1.3168321119       -2.1103098610
 H          4.8035353858        0.6092809310        0.7715556075
 H          7.3785255255        0.5379203374        0.2588165412
 H          4.2586433296       -2.3407584903       -4.5841726687
 H          7.7385655033       -0.6282918552       -1.9501049378
 H         -0.3891130544        0.4621001177       -0.9030820534
 H         -0.3851428167       -1.0126132795        0.0841236044
 H         -0.3591682335        0.5682425457        0.8504331711
 H          4.6817750518        3.4022402638        1.9065025424
 H          4.5166588821        3.7440747098        3.6716878554
 H          3.0936546964        3.7801841719        2.6261071913
  42
    -5.206025 !GC
 C          0.0000000000        0.0000000000        0.0000000000
 C          1.5295080528        0.0000000000        0.0000000000
 C          2.0529883530        1.4463086350        0.0000000000
 C          1.8160059319        2.1484108374        1.3409368652
 N          2.2448503472        1.3660194015        2.4815448964
 C          1.7442050923        0.0118165369        2.5310619398
 C          2.0541778530       -0.7519442124        1.2439236158
 S          3.7316869246        1.7118471855        3.1234081751
 O          3.7232545933        1.1523288223        4.4547280502
 O          4.8602001083        1.3524149947        2.2746928495
 C          3.6717655631        3.4938447847        3.2609660123
 N          2.0175236929       -0.6743219274       -1.2058637511
 C          1.2405958653       -1.2319443989       -2.1814130700
 N          1.8993415335       -1.7893324582       -3.1484952464
 C          3.2200413282       -1.6095765306       -2.8250562491
 C          3.3176088198       -0.9043967251       -1.5979789814
 C          4.6088772928       -0.6324173068       -1.1166686283
 C          5.2493877518        0.0025624798       -0.0159604154
 C          6.5945987616       -0.1170384028       -0.2105595792
 N          6.8442175712       -0.7910026141       -1.3662829549
 C          5.6609594001       -1.1194984104       -1.9468647951
 N          5.5663196212       -1.7844941063       -3.1011753804
 C          4.3488699660       -2.0241128441       -3.5352723482
 H          3.1215203162        1.4494018133       -0.2058335005
 H          1.5573189866        2.0121722521       -0.7901996662
 H          2.3838018105        3.0770738320        1.3463036315
 H          0.7562059360        2.3783609998        1.4753246223
 H          2.2471586193       -0.4659074886        3.3723235521
 H          0.6699409162        0.0480682182        2.7234521855
 H          1.6091836142       -1.7468216580        1.2916460287
 H          3.1362856946       -0.8750013641        1.1698757147
 H          0.1719072871       -1.2164618960       -2.1627420930
 H          4.8097612485        0.4984242797        0.8268033536
 H          7.3903341722        0.2410665661        0.4113899501
 H          4.2570091091       -2.5598698150       -4.4675883412
 H          7.7478812964       -1.0157391603       -1.7473002408
 H         -0.3671884085        0.5488930709        0.8665457831
 H         -0.3744619393        0.4786093564       -0.9018035920
 H         -0.3909693407       -1.0063003232        0.0337683965
 H          3.9479129049        3.8992483419        2.3002529481
 H          4.3577301819        3.7720267888        4.0473721638
 H          2.6635227096        3.7789263148        3.5342772431
  42
    -5.202539 !GC
 C          0.0000000000        0.0000000000        0.0000000000
 C          1.5295533463        0.0000000000        0.0000000000
 C          2.0625799683        1.4438085202        0.0000000000
 C          1.7356494955        2.1587564485        1.3093135010
 N          2.2620532076        1.4296255830        2.4412100787
 C          1.8433759654        0.0458937313        2.5326333350
 C          2.0489172714       -0.7581964891        1.2433088808
 S          3.7790078412        1.8332199359        2.9736775349
 O          4.8560072991        1.7034114059        1.9975651734
 O          3.6090979148        3.1381345946        3.5650128259
 C          4.0555130498        0.6478908661        4.2876306740
 N          2.0204206511       -0.6706066935       -1.2068945306
 C          1.2468439229       -1.1785989392       -2.2114179521
 N          1.9059677669       -1.7542624463       -3.1675092403
 C          3.2236745630       -1.6443765555       -2.8027243730
 C          3.3179782242       -0.9711542427       -1.5577284580
 C          4.6053577022       -0.7776396852       -1.0302715417
 C          5.2420080843       -0.2025349577        0.1050564639
 C          6.5846116543       -0.3914896095       -0.0487587144
 N          6.8362457255       -1.0493251927       -1.2132751263
 C          5.6569933536       -1.3017613357       -1.8381548273
 N          5.5651392493       -1.9373013506       -3.0091023318
 C          4.3510867892       -2.1116327344       -3.4817303458
 H          3.1487754885        1.4374256425       -0.1195144938
 H          1.6377091129        1.9954883617       -0.8399083179
 H          2.2227943050        3.1346121255        1.3290088655
 H          0.6596218209        2.2839972589        1.4427526931
 H          2.4158817007       -0.4217627775        3.3308199601
 H          0.7873263116        0.0470021792        2.8153735021
 H          1.5254010399       -1.7108563220        1.3354037441
 H          3.1085902809       -0.9674693290        1.1230073306
 H          0.1801393932       -1.1087420595       -2.2251425807
 H          4.8007646775        0.2925512270        0.9472845252
 H          7.3773053058       -0.0932783641        0.6076878105
 H          4.2610681784       -2.6243884477       -4.4270664691
 H          7.7385190408       -1.3155766886       -1.5699616532
 H         -0.3818479267        0.6106251617       -0.8139757202
 H         -0.3852815785       -1.0117444199       -0.0934659674
 H         -0.3658155305        0.4146436024        0.9320873277
 H          4.5289013779        1.1693933416        5.1049183712
 H          4.6918029237       -0.1292287137        3.8846441496
 H          3.0968596052        0.2252036035        4.5569447550
  42
    -5.189671 !GC
 C          0.0000000000        0.0000000000        0.0000000000
 C          1.5296602086        0.0000000000        0.0000000000
 C          2.0556204056        1.4465842993        0.0000000000
 C          1.7839867173        2.1440641051        1.3337457082
 N          2.2570228898        1.3822900562        2.4695388592
 C          1.7868155444        0.0146911081        2.5322755244
 C          2.0528335779       -0.7543028483        1.2354566165
 S          3.7600530729        1.6961183842        3.0956434310
 O          3.6464256611        1.5784013258        4.5298309854
 O          4.8226041032        0.9165358725        2.4713109298
 C          3.9913907366        3.4269061432        2.7013156121
 N          2.0210758116       -0.6770434896       -1.2030934212
 C          1.2465727895       -1.2289701151       -2.1835311182
 N          1.9071136284       -1.7806065514       -3.1526877084
 C          3.2272161421       -1.6005170622       -2.8264144611
 C          3.3222438492       -0.9018936758       -1.5946692276
 C          4.6120682986       -0.6303356529       -1.1093051483
 C          5.2494401598        0.0021798709       -0.0054354472
 C          6.5951965365       -0.1157328544       -0.1971488511
 N          6.8480628104       -0.7882909387       -1.3529751376
 C          5.6665517602       -1.1137764187       -1.9386597009
 N          5.5752797913       -1.7730822210       -3.0965951816
 C          4.3591465360       -2.0102022071       -3.5355380125
 H          3.1300327815        1.4504922932       -0.1820109844
 H          1.5803153692        2.0114667680       -0.8033753080
 H          2.3139330316        3.0970927395        1.3726076198
 H          0.7126152452        2.3195269650        1.4640401453
 H          2.3160757323       -0.4824577659        3.3419543392
 H          0.7220483164        0.0399096555        2.7702403962
 H          1.5797039102       -1.7356887929        1.2912415323
 H          3.1281958850       -0.9024279582        1.1381723754
 H          0.1777235717       -1.2157505863       -2.1664376887
 H          4.8072672670        0.5142929890        0.8260363081
 H          7.3895064075        0.2446717451        0.4252863492
 H          4.2694733965       -2.5388805433       -4.4720996643
 H          7.7528154528       -1.0085270330       -1.7340082187
 H         -0.3849102478        0.5330342822       -0.8651566118
 H         -0.3853847185       -1.0160272813        0.0025068558
 H         -0.3627909002        0.4985682792        0.8916194045
 H          4.7334288767        3.4736035359        1.9158651604
 H          4.3234586487        3.9275803752        3.5981633771
 H          3.0492463697        3.8111696187        2.3347613845
  42
    -5.148182 !GC
 C          0.0000000000        0.0000000000        0.0000000000
 C          1.5298107243        0.0000000000        0.0000000000
 C          2.0505968262        1.4475078134        0.0000000000
 C          1.7976202115        2.1525304872        1.3364697546
 N          2.2700015196        1.3804831742        2.4653315026
 C          1.7870707456        0.0180239994        2.5241141097
 C          2.0579835997       -0.7549823118        1.2336173067
 S          3.8011052812        1.6841815326        3.0214408156
 O          4.8016543729        1.7089643579        1.9596664607
 O          3.7271005663        2.8639454355        3.8486875338
 C          4.1054034319        0.2816554550        4.0924286096
 N          2.0225451092       -0.6735250693       -1.2046767534
 C          1.2499193070       -1.2208515087       -2.1889909812
 N          1.9124625243       -1.7643801561       -3.1614894403
 C          3.2321675771       -1.5824407969       -2.8335640591
 C          3.3246359346       -0.8924286715       -1.5970636963
 C          4.6131026027       -0.6198731042       -1.1088800627
 C          5.2474772034        0.0034380380        0.0019850339
 C          6.5937646247       -0.1057112427       -0.1915499402
 N          6.8496762844       -0.7602905161       -1.3570562771
 C          5.6696643055       -1.0882300798       -1.9442076017
 N          5.5808172882       -1.7399302787       -3.1066066126
 C          4.3657777705       -1.9828922967       -3.5452992775
 H          3.1237046993        1.4452021689       -0.1898015908
 H          1.5675294999        2.0064141134       -0.8029355308
 H          2.3385635094        3.0961212304        1.3287298837
 H          0.7348946569        2.3481402116        1.4883180792
 H          2.3051999072       -0.4478855841        3.3637569359
 H          0.7153832673        0.0455971644        2.7397742367
 H          1.5833531057       -1.7353586205        1.2951865410
 H          3.1327993327       -0.9104867086        1.1416977070
 H          0.1808895845       -1.2101052591       -2.1710708092
 H          4.8023586940        0.4843151891        0.8501284745
 H          7.3865354432        0.2475142674        0.4368831297
 H          4.2781890991       -2.5092983311       -4.4833585881
 H          7.7554638068       -0.9739195396       -1.7394451345
 H         -0.3840070331        0.5193454549       -0.8739603078
 H         -0.3864174370       -1.0155445816        0.0176215778
 H         -0.3626338165        0.5125915592        0.8835848135
 H          4.8560560828       -0.3528450040        3.6434885576
 H          3.1542002047       -0.2231853935        4.1822024390
 H          4.4401206835        0.6621776729        5.0480088858
  42
    -5.092449 !GC
 C          0.0000000000        0.0000000000        0.0000000000
 C          1.5295710095        0.0000000000        0.0000000000
 C          2.0573043030        1.4463261283        0.0000000000
 C          1.7900145317        2.1408917772        1.3353070093
 N          2.2752032612        1.3753896099        2.4623347642
 C          1.7982697450        0.0115532326        2.5310419706
 C          2.0488178993       -0.7582909307        1.2301453181
 S          3.8086716835        1.6529374170        3.0228164475
 O          3.7293099367        1.7353835100        4.4612202837
 O          4.7933834880        0.7189283539        2.4872228327
 C          4.1498323571        3.2968857783        2.4006769922
 N          2.0224202628       -0.6737522501       -1.2046474664
 C          1.2495129281       -1.2235942604       -2.1873513622
 N          1.9117458014       -1.7664764290       -3.1603733975
 C          3.2314494903       -1.5829143786       -2.8337823742
 C          3.3244615607       -0.8929322544       -1.5973163034
 C          4.6132905418       -0.6207763682       -1.1097008827
 C          5.2484400222       -0.0008365600        0.0025229601
 C          6.5946028940       -0.1090584841       -0.1922793776
 N          6.8497645642       -0.7583964433       -1.3608109181
 C          5.6693563079       -1.0855789096       -1.9476624172
 N          5.5799394268       -1.7330712402       -3.1124365629
 C          4.3645720638       -1.9786245914       -3.5487795292
 H          3.1317448904        1.4492145583       -0.1827157475
 H          1.5810143731        2.0123039070       -0.8018859123
 H          2.3101108813        3.0990667702        1.3776736714
 H          0.7189460254        2.3114347059        1.4739746922
 H          2.3385660322       -0.4898885580        3.3307729227
 H          0.7356669113        0.0411049246        2.7774727865
 H          1.5634389739       -1.7337891617        1.2857370395
 H          3.1214164718       -0.9212384654        1.1275568257
 H          0.1805087931       -1.2128421181       -2.1692566427
 H          4.8039721805        0.4706508804        0.8561979067
 H          7.3877872435        0.2409262787        0.4374609175
 H          4.2762884207       -2.5030849416       -4.4879016773
 H          7.7551023862       -0.9722826005       -1.7442410884
 H         -0.3857678276        0.5428009718       -0.8589120854
 H         -0.3837579892       -1.0167031357       -0.0105209066
 H         -0.3627412274        0.4887327828        0.8970772894
 H          3.2357156997        3.6741658438        1.9657131851
 H          4.9258249158        3.1685193403        1.6601171112
 H          4.4848989443        3.9300972841        3.2106239904
  42
    -5.026718 !GC
 C          0.0000000000        0.0000000000        0.0000000000
 C          1.5296106255        0.0000000000        0.0000000000
 C          2.0612088579        1.4445318704        0.0000000000
 C          1.7355047263        2.1586679509        1.3100908085
 N          2.2631059324        1.4291673389        2.4413074223
 C          1.8438997474        0.0454286443        2.5320378391
 C          2.0503061881       -0.7576516928        1.2422581132
 S          3.7828317825        1.8288002647        2.9692419445
 O          4.8583880145        1.6760766999        1.9947994353
 O          3.6239716651        3.1445041301        3.5398159189
 C          4.0500963026        0.6624515304        4.3019704915
 N          2.0207889830       -0.6694129991       -1.2073959377
 C          1.2471788833       -1.1866027801       -2.2071927981
 N          1.9063012548       -1.7710480008       -3.1579533786
 C          3.2240657355       -1.6569961379       -2.7946281714
 C          3.3181660230       -0.9717233861       -1.5572612296
 C          4.6064682731       -0.7649586060       -1.0372293775
 C          5.2449811380       -0.1654917843        0.0843982931
 C          6.5878316023       -0.3507438011       -0.0715029565
 N          6.8379013368       -1.0304255191       -1.2237892304
 C          5.6573552657       -1.2991495783       -1.8394097951
 N          5.5637863486       -1.9542483427       -2.9992972004
 C          4.3491800621       -2.1359415611       -3.4677765287
 H          3.1470859070        1.4396020335       -0.1216404647
 H          1.6339383734        1.9954892835       -0.8391468603
 H          2.2215415531        3.1350132385        1.3297572505
 H          0.6595279035        2.2832214959        1.4447899631
 H          2.4154091989       -0.4227464324        3.3307072060
 H          0.7874844521        0.0468919714        2.8133953769
 H          1.5276943787       -1.7107675479        1.3341149965
 H          3.1101451669       -0.9658536628        1.1211675979
 H          0.1804805749       -1.1167464721       -2.2217704651
 H          4.8049018561        0.3446592678        0.9181412118
 H          7.3815812812       -0.0354460056        0.5756236790
 H          4.2586128352       -2.6625522417       -4.4054607024
 H          7.7399465306       -1.2978326933       -1.5799793255
 H         -0.3850592761       -1.0131976777       -0.0780891152
 H         -0.3836265660        0.4292691354        0.9207592167
 H         -0.3641883200        0.5986293026       -0.8279902774
 H          3.0808014770        0.3026863184        4.6155140998
 H          4.5140723478        1.2382837943        5.0918225773
 H          4.6966958699       -0.1357184724        3.9681507596
  42
    -5.024175 !GC
 C          0.0000000000        0.0000000000        0.0000000000
 C          1.5296647506        0.0000000000        0.0000000000
 C          2.0604054721        1.4449710757        0.0000000000
 C          1.7392421155        2.1583628479        1.3117184069
 N          2.2700403313        1.4273896342        2.4404284598
 C          1.8485088800        0.0444413587        2.5315075295
 C          2.0504118023       -0.7584622057        1.2410301773
 S          3.7920749513        1.8231446543        2.9648599531
 O          4.8662423114        1.6553312435        1.9916057097
 O          3.6415573484        3.1441057916        3.5251440703
 C          4.0528196695        0.6665393348        4.3071792537
 N          2.0216523135       -0.6693008149       -1.2071949525
 C          1.2483500989       -1.1891899734       -2.2059702793
 N          1.9080156021       -1.7727013309       -3.1569066019
 C          3.2259648463       -1.6535357791       -2.7957612058
 C          3.3196991485       -0.9663216099       -1.5589671849
 C          4.6080177884       -0.7526000649       -1.0418878467
 C          5.2457233699       -0.1480430148        0.0774077677
 C          6.5892440642       -0.3255005326       -0.0817271853
 N          6.8402932261       -1.0056482230       -1.2335683680
 C          5.6598230471       -1.2823558769       -1.8457007742
 N          5.5673038848       -1.9395706789       -3.0045242304
 C          4.3526834473       -2.1272550634       -3.4706005769
 H          3.1458592224        1.4410397567       -0.1255342077
 H          1.6296907439        1.9966817297       -0.8369014680
 H          2.2264148585        3.1342152613        1.3306532371
 H          0.6637991818        2.2838228572        1.4503102519
 H          2.4213117868       -0.4250879313        3.3283404508
 H          0.7928692357        0.0474284845        2.8155213491
 H          1.5259782562       -1.7105587913        1.3332866580
 H          3.1096159551       -0.9688263279        1.1180963258
 H          0.1814066290       -1.1226345729       -2.2191291096
 H          4.8044046883        0.3606018011        0.9115855732
 H          7.3830954587       -0.0045759621        0.5625101879
 H          4.2623692793       -2.6553447098       -4.4074392575
 H          7.7430007671       -1.2679494076       -1.5918928506
 H         -0.3830672962        0.4310534299        0.9220725040
 H         -0.3872462807        0.5558978644       -0.8485518779
 H         -0.3628659953       -1.0153456078       -0.1115910946
 H          3.1027753702        0.2713561170        4.6320412108
 H          4.5805772761        1.1933373433        5.0890931916
 H          4.6829795237       -0.1140006381        3.8990691216
  42
    -4.980236 !GC
 C          0.0000000000        0.0000000000        0.0000000000
 C          1.5297757764        0.0000000000        0.0000000000
 C          2.0459700935        1.4495790009        0.0000000000
 C          1.8445927965        2.1371249152        1.3557306069
 N          2.2643724178        1.3423639836        2.4917863740
 C          1.7336237523       -0.0018111656        2.5307369399
 C          2.0604499754       -0.7533679133        1.2420645836
 S          3.7864219743        1.5838809612        3.1032633578
 O          3.6350528545        1.3803055857        4.5236549639
 O          4.8601532766        0.8371649123        2.4562006463
 C          4.0510939189        3.3300652547        2.8084834159
 N          2.0218997814       -0.6807219924       -1.2007658528
 C          1.2494947720       -1.2748751094       -2.1578811211
 N          1.9086487519       -1.7754945365       -3.1553986819
 C          3.2249202461       -1.5072032553       -2.8778226172
 C          3.3178212987       -0.8041128404       -1.6503496247
 C          4.6040755407       -0.4470946956       -1.2138296179
 C          5.2398542551        0.2125886875       -0.1251171284
 C          6.5809308476        0.2005605538       -0.3765348170
 N          6.8323326305       -0.4275056876       -1.5575596357
 C          5.6543306478       -0.8360436264       -2.0964380245
 N          5.5619819184       -1.4883974045       -3.2581819463
 C          4.3491194102       -1.8140968810       -3.6466210015
 H          3.1047495830        1.4572529394       -0.2447179115
 H          1.5190707703        2.0213073633       -0.7652854175
 H          2.4187764267        3.0611070236        1.3674816391
 H          0.7894535358        2.3807852601        1.5053645946
 H          2.2183529406       -0.4914988920        3.3763015834
 H          0.6575077395        0.0510097898        2.7056790768
 H          1.6348440520       -1.7572665656        1.2793261512
 H          3.1466215232       -0.8532875847        1.1745329381
 H          0.1835883859       -1.3343688098       -2.1006303761
 H          4.7991952296        0.6515648090        0.7479526153
 H          7.3721335861        0.6061283086        0.2216036320
 H          4.2587918550       -2.3430119535       -4.5830097828
 H          7.7341632165       -0.5754351968       -1.9784924692
 H         -0.3837309800        0.5778095896        0.8354865638
 H         -0.3851118917        0.4449503482       -0.9135715239
 H         -0.3647305803       -1.0167764748        0.0979867337
 H          4.5732915879        3.7271036642        3.6674004807
 H          3.1026419566        3.8135767011        2.6308138579
 H          4.6880676036        3.3832863692        1.9338106836
  42
    -4.980014 !GC
 C          0.0000000000        0.0000000000        0.0000000000
 C          1.5297078993        0.0000000000        0.0000000000
 C          2.0468398785        1.4493379920        0.0000000000
 C          1.8484749624        2.1360396345        1.3565407275
 N          2.2698519384        1.3402310140        2.4912870480
 C          1.7362468557       -0.0027624545        2.5309910459
 C          2.0590163849       -0.7545367667        1.2415839250
 S          3.7940575891        1.5781146721        3.0987924745
 O          3.6452952992        1.3740211436        4.5191934186
 O          4.8645212874        0.8292549492        2.4490343254
 C          4.0611831993        3.3241148950        2.8046533597
 N          2.0223138179       -0.6802061061       -1.2008993900
 C          1.2495549132       -1.2698218351       -2.1605538943
 N          1.9087855625       -1.7711379103       -3.1576403364
 C          3.2256121222       -1.5097619337       -2.8762008132
 C          3.3188443147       -0.8095957714       -1.6470089647
 C          4.6056565113       -0.4599280675       -1.2062544169
 C          5.2419297970        0.1959627470       -0.1155129599
 C          6.5837066344        0.1758556555       -0.3625747488
 N          6.8351030222       -0.4533053096       -1.5430458239
 C          5.6564058626       -0.8546351910       -2.0857623112
 N          5.5640295749       -1.5051895637       -3.2485181391
 C          4.3503944350       -1.8225472269       -3.6416384051
 H          3.1050927913        1.4564602462       -0.2471303648
 H          1.5186680067        2.0216425305       -0.7639439946
 H          2.4230300689        3.0598518496        1.3677059550
 H          0.7936303349        2.3800930092        1.5078746891
 H          2.2215782128       -0.4940133079        3.3753593759
 H          0.6606434579        0.0526639163        2.7081692730
 H          1.6302986371       -1.7570894116        1.2789976125
 H          3.1447630525       -0.8578948888        1.1733338475
 H          0.1832463819       -1.3247601291       -2.1056069552
 H          4.8012268014        0.6376589861        0.7561715031
 H          7.3756012009        0.5765448984        0.2379521730
 H          4.2597958306       -2.3490146059       -4.5794069825
 H          7.7371147932       -0.6057221035       -1.9618690555
 H         -0.3857129832       -1.0120409077        0.0880375136
 H         -0.3870752234        0.5747607292        0.8359421350
 H         -0.3605635096        0.4543452741       -0.9167695838
 H          4.5872531542        3.7187264917        3.6623605400
 H          3.1131392494        3.8100921142        2.6313292811
 H          4.6951386666        3.3770559437        1.9278023098
  42
    -4.971400 !GC
 C          0.0000000000        0.0000000000        0.0000000000
 C          1.5296149151        0.0000000000        0.0000000000
 C          2.0626203840        1.4437157317        0.0000000000
 C          1.7330251948        2.1592535889        1.3083353011
 N          2.2604981370        1.4314598591        2.4406258560
 C          1.8438365268        0.0473006345        2.5331700462
 C          2.0489623428       -0.7572042628        1.2440412691
 S          3.7766786569        1.8384415586        2.9732716727
 O          4.8554618069        1.7007788479        2.0004265043
 O          3.6064987662        3.1472580324        3.5558046988
 C          4.0504997550        0.6617870824        4.2954843102
 N          2.0210612912       -0.6704567120       -1.2068014794
 C          1.2481048739       -1.1795592102       -2.2111957231
 N          1.9075018750       -1.7590853298       -3.1648208309
 C          3.2248219494       -1.6511380941       -2.7981364880
 C          3.3186299268       -0.9736111795       -1.5553365863
 C          4.6055458325       -0.7789477138       -1.0274166481
 C          5.2412116416       -0.1986965050        0.1057363762
 C          6.5837791650       -0.3899881831       -0.0452846301
 N          6.8363018379       -1.0554474121       -1.2053809585
 C          5.6574761597       -1.3102375539       -1.8302439195
 N          5.5660611937       -1.9518862330       -2.9979625503
 C          4.3524032923       -2.1251030500       -3.4722298240
 H          3.1491058265        1.4378026716       -0.1175517497
 H          1.6389326525        1.9946586866       -0.8409667057
 H          2.2189297836        3.1356636596        1.3277222651
 H          0.6566454177        2.2830018944        1.4409884779
 H          2.4180497219       -0.4190768675        3.3309143174
 H          0.7881260139        0.0473107306        2.8171046580
 H          1.5252455383       -1.7096217078        1.3371992318
 H          3.1085705640       -0.9666893886        1.1231558208
 H          0.1815018353       -1.1088736763       -2.2259882410
 H          4.7996951020        0.3029432969        0.9439050275
 H          7.3753013266       -0.0878313807        0.6107327900
 H          4.2630249239       -2.6411362721       -4.4159240950
 H          7.7387865480       -1.3262061363       -1.5582986641
 H         -0.3862600412        0.4117934183        0.9274374683
 H         -0.3854299092        0.6048531956       -0.8163896034
 H         -0.3613244274       -1.0187220338       -0.0923804713
 H          3.1073120452        0.2333150247        4.5981122333
 H          4.5526687489        1.1864907170        5.0955860503
 H          4.7087662038       -0.0916172080        3.8805240004
  42
    -4.971279 !GC
 C          0.0000000000        0.0000000000        0.0000000000
 C          1.5296960397        0.0000000000        0.0000000000
 C          2.0617052199        1.4444244035        0.0000000000
 C          1.7378422886        2.1586173385        1.3105029644
 N          2.2674813264        1.4286352559        2.4404845673
 C          1.8459478148        0.0456342289        2.5318723425
 C          2.0487731537       -0.7582600692        1.2420240675
 S          3.7894452694        1.8254409830        2.9645336793
 O          4.8627996296        1.6633596521        1.9893210418
 O          3.6365809667        3.1442903386        3.5292044963
 C          4.0553164134        0.6653158336        4.3028767524
 N          2.0218613948       -0.6685940583       -1.2075857304
 C          1.2493178473       -1.1813971232       -2.2105805318
 N          1.9086681231       -1.7725843445       -3.1570886968
 C          3.2255327114       -1.6683392090       -2.7871171765
 C          3.3184169496       -0.9829641277       -1.5496082191
 C          4.6053544103       -0.7856846168       -1.0229130772
 C          5.2417891234       -0.1865864590        0.0998473748
 C          6.5836689294       -0.3850968651       -0.0461359605
 N          6.8353627132       -1.0731496968       -1.1933300643
 C          5.6562764296       -1.3337147352       -1.8156328177
 N          5.5637798487       -1.9928038730       -2.9734861988
 C          4.3505152359       -2.1622508949       -3.4502594054
 H          3.1475063973        1.4384935757       -0.1231600694
 H          1.6336531976        1.9959639972       -0.8383774089
 H          2.2240684157        3.1349210401        1.3300173301
 H          0.6620165552        2.2830553327        1.4469228966
 H          2.4177526137       -0.4237314195        3.3295349847
 H          0.7900881392        0.0489885598        2.8150785431
 H          1.5231981681       -1.7096717233        1.3344867422
 H          3.1078614915       -0.9696653695        1.1208774627
 H          0.1831384910       -1.1050342184       -2.2295938404
 H          4.8009568547        0.3327590012        0.9274954305
 H          7.3756731762       -0.0732516325        0.6047266522
 H          4.2606360854       -2.6914567294       -4.3865087213
 H          7.7376969360       -1.3506394922       -1.5420547862
 H         -0.3867814748       -1.0082412355       -0.1276499625
 H         -0.3851453948        0.4587547776        0.9067598626
 H         -0.3611922223        0.6053567337       -0.8224396050
 H          3.1063289859        0.2718193814        4.6328435495
 H          4.5897076284        1.1881831009        5.0828353123
 H          4.6805895499       -0.1160181012        3.8888117196
  42
    -4.953328 !GC
 C          0.0000000000        0.0000000000        0.0000000000
 C          1.5298111028        0.0000000000        0.0000000000
 C          2.0455791948        1.4497282984        0.0000000000
 C          1.8432117600        2.1377235025        1.3553963013
 N          2.2631884217        1.3434967581        2.4917186875
 C          1.7337599580       -0.0011441102        2.5307726603
 C          2.0610083196       -0.7526046614        1.2422260988
 S          3.7838300179        1.5865909507        3.1062276155
 O          3.6256746768        1.3991122227        4.5280262407
 O          4.8582909742        0.8304559856        2.4713831433
 C          4.0549257519        3.3285350217        2.7936250497
 N          2.0219820100       -0.6803221993       -1.2010509315
 C          1.2500446260       -1.2756460379       -2.1578087263
 N          1.9098020190       -1.7800196259       -3.1529943175
 C          3.2261286192       -1.5133730683       -2.8741214576
 C          3.3184359752       -0.8063184479       -1.6484602434
 C          4.6042142938       -0.4473063218       -1.2122028190
 C          5.2386926984        0.2179484401       -0.1262080480
 C          6.5800802824        0.2040637826       -0.3755730114
 N          6.8330159406       -0.4310545741       -1.5525141546
 C          5.6555350376       -0.8418687129       -2.0910523817
 N          5.5646114300       -1.5003844276       -3.2495939316
 C          4.3519362417       -1.8261833362       -3.6387319313
 H          3.1045529253        1.4579236696       -0.2440787716
 H          1.5187984491        2.0209735018       -0.7657075943
 H          2.4170354520        3.0619100323        1.3671119875
 H          0.7878989972        2.3811024086        1.5046005930
 H          2.2194065029       -0.4904031975        3.3760590027
 H          0.6576676481        0.0504026776        2.7059681275
 H          1.6363286919       -1.7569082621        1.2802302086
 H          3.1473442261       -0.8512669363        1.1749140336
 H          0.1839966866       -1.3331258849       -2.1019809223
 H          4.7967431779        0.6625074890        0.7433831206
 H          7.3708141907        0.6116864831        0.2217929990
 H          4.2622602933       -2.3587360442       -4.5731255561
 H          7.7352217300       -0.5805161156       -1.9724855136
 H         -0.3868377105       -1.0127688788        0.0593373969
 H         -0.3831047460        0.5840640099        0.8336373297
 H         -0.3635723900        0.4092333029       -0.9355795861
 H          4.5609039084        3.7363594286        3.6568335924
 H          3.1109569247        3.8103196554        2.5914672460
 H          4.7083980322        3.3706811618        1.9310566009
  42
    -4.949555 !GC
 C          0.0000000000        0.0000000000        0.0000000000
 C          1.5296419146        0.0000000000        0.0000000000
 C          2.0603809412        1.4449536877        0.0000000000
 C          1.7355644230        2.1589867947        1.3104225658
 N          2.2642731089        1.4292973823        2.4409185194
 C          1.8454685177        0.0455160771        2.5317497164
 C          2.0510614731       -0.7574182614        1.2418637576
 S          3.7836401528        1.8288758240        2.9700113288
 O          4.8616431370        1.6614411289        2.0007954645
 O          3.6287155935        3.1507911973        3.5271835979
 C          4.0412584012        0.6753035137        4.3155504981
 N          2.0211534700       -0.6690541654       -1.2074953700
 C          1.2476540850       -1.1911422588       -2.2048497203
 N          1.9068833543       -1.7794138292       -3.1531028995
 C          3.2246947631       -1.6621184246       -2.7910915394
 C          3.3187156934       -0.9706415962       -1.5573614296
 C          4.6073913707       -0.7557612750       -1.0416143376
 C          5.2464745837       -0.1441105163        0.0730846005
 C          6.5896768697       -0.3254026212       -0.0848299343
 N          6.8391972488       -1.0147647649       -1.2314042703
 C          5.6581651737       -1.2932370435       -1.8416943431
 N          5.5643049162       -1.9574117863       -2.9964952954
 C          4.3494018203       -2.1446619162       -3.4620851361
 H          3.1461970477        1.4413371821       -0.1224252864
 H          1.6318902428        1.9956883786       -0.8386704133
 H          2.2219570335        3.1351679729        1.3296300936
 H          0.6597246130        2.2839160321        1.4463512780
 H          2.4180483096       -0.4225198164        3.3296790359
 H          0.7893247246        0.0463810805        2.8139512654
 H          1.5288714468       -1.7107489405        1.3342422097
 H          3.1109672982       -0.9651304949        1.1201744911
 H          0.1808849759       -1.1219583096       -2.2195252143
 H          4.8065217865        0.3721087258        0.9032560004
 H          7.3840481104       -0.0013906427        0.5572541936
 H          4.2584683469       -2.6778676589       -4.3960115016
 H          7.7412748608       -1.2812785618       -1.5879393743
 H         -0.3848893516       -1.0138904965       -0.0688627355
 H         -0.3835593972        0.4373330724        0.9169819564
 H         -0.3646015894        0.5911593852       -0.8332617430
 H          4.6620039413       -0.1398601337        3.9724284844
 H          3.0544454607        0.3384751847        4.5981049836
 H          4.5246120222        1.2108858443        5.1211114226
  42
    -4.947362 !GC
 C          0.0000000000        0.0000000000        0.0000000000
 C          1.5297226606        0.0000000000        0.0000000000
 C          2.0614422022        1.4445512162        0.0000000000
 C          1.7362623061        2.1585720377        1.3102023748
 N          2.2664789046        1.4293896450        2.4404085996
 C          1.8472368759        0.0457604374        2.5322097458
 C          2.0500052941       -0.7578708441        1.2421964333
 S          3.7876508436        1.8290616762        2.9649628342
 O          4.8622691216        1.6621370302        1.9920683484
 O          3.6342976100        3.1506852544        3.5230051998
 C          4.0515090117        0.6744111346        4.3084366120
 N          2.0216156000       -0.6686070940       -1.2076636313
 C          1.2486384842       -1.1856505945       -2.2080800072
 N          1.9078711699       -1.7763704351       -3.1549143201
 C          3.2249762362       -1.6682621829       -2.7874219389
 C          3.3184016497       -0.9788332137       -1.5526573491
 C          4.6061419904       -0.7748091322       -1.0305119989
 C          5.2440988305       -0.1698125061        0.0883057824
 C          6.5864106175       -0.3632428198       -0.0618722256
 N          6.8366384522       -1.0539958928       -1.2075903259
 C          5.6565606061       -1.3217365486       -1.8247206296
 N          5.5630339459       -1.9844107344       -2.9804383569
 C          4.3489230865       -2.1610476882       -3.4523819337
 H          3.1473775567        1.4398379070       -0.1217337256
 H          1.6339586200        1.9955732405       -0.8389985170
 H          2.2215792891        3.1352572969        1.3292435007
 H          0.6602886718        2.2821943126        1.4462525175
 H          2.4208397941       -0.4223702206        3.3294277995
 H          0.7915824704        0.0474428504        2.8163435415
 H          1.5253545556       -1.7097426939        1.3355278025
 H          3.1092118106       -0.9683974835        1.1198649095
 H          0.1822765731       -1.1116371662       -2.2256828402
 H          4.8040199742        0.3506416141        0.9156758031
 H          7.3793730580       -0.0461940667        0.5853469178
 H          4.2583572559       -2.6924067048       -4.3873903797
 H          7.7384978202       -1.3299256750       -1.5581984203
 H         -0.3867511434        0.4241670648        0.9216957500
 H         -0.3856304014        0.5935080513       -0.8246004361
 H         -0.3607520466       -1.0200878283       -0.0786380122
 H          4.6765933312       -0.1366937046        3.9627116099
 H          3.0667503856        0.3317677864        4.5918617166
 H          4.5330378106        1.2117833170        5.1141897341
  42
    -4.946826 !GC
 C          0.0000000000        0.0000000000        0.0000000000
 C          1.5296159245        0.0000000000        0.0000000000
 C          2.0630516063        1.4436832618        0.0000000000
 C          1.7343145430        2.1593335690        1.3084170875
 N          2.2606646015        1.4310119357        2.4408639860
 C          1.8423868026        0.0471858843        2.5327088566
 C          2.0480346226       -0.7577569332        1.2439154970
 S          3.7771850979        1.8356086095        2.9740951554
 O          4.8558733676        1.6967886438        2.0010929320
 O          3.6088010358        3.1447888186        3.5564610980
 C          4.0491572502        0.6593819702        4.2970679742
 N          2.0209942467       -0.6695413662       -1.2073858020
 C          1.2482854973       -1.1753464266       -2.2136780323
 N          1.9071660339       -1.7625627942       -3.1629209168
 C          3.2237852408       -1.6643884202       -2.7906944818
 C          3.3171984240       -0.9867167734       -1.5484744907
 C          4.6034139643       -0.8014480735       -1.0155599017
 C          5.2391701287       -0.2194541848        0.1165639706
 C          6.5803548334       -0.4254831384       -0.0260692923
 N          6.8321976484       -1.1010604792       -1.1804695143
 C          5.6540386849       -1.3472022436       -1.8103536150
 N          5.5620619951       -1.9938062411       -2.9754202907
 C          4.3491826578       -2.1554695870       -3.4558717825
 H          3.1495234989        1.4366171297       -0.1179224014
 H          1.6396273310        1.9949633887       -0.8408987304
 H          2.2208670557        3.1354770636        1.3282248039
 H          0.6580476685        2.2839262732        1.4409144995
 H          2.4149654059       -0.4201632653        3.3309853990
 H          0.7863902728        0.0480651946        2.8154882364
 H          1.5237970086       -1.7099474679        1.3367453053
 H          3.1076578397       -0.9675808342        1.1248021603
 H          0.1823036221       -1.0963182868       -2.2332892458
 H          4.7984918605        0.2925125269        0.9488745494
 H          7.3716492602       -0.1275248475        0.6321498406
 H          4.2593249722       -2.6760064382       -4.3969721156
 H          7.7340603529       -1.3816180327       -1.5279001902
 H         -0.3853912335        0.3702993134        0.9461378648
 H         -0.3831076252        0.5795915567       -0.8367121662
 H         -0.3645539429       -1.0149966829       -0.0993109174
 H          3.1042328856        0.2429369625        4.6101071650
 H          4.5648148305        1.1800181848        5.0910738838
 H          4.6943130830       -0.1035323538        3.8790276326
  42
    -4.926786 !GC
 C          0.0000000000        0.0000000000        0.0000000000
 C          1.5297795614        0.0000000000        0.0000000000
 C          2.0464106382        1.4493155741        0.0000000000
 C          1.8431149722        2.1373335822        1.3551921348
 N          2.2619654070        1.3432599639        2.4921184491
 C          1.7321551993       -0.0013119410        2.5309190555
 C          2.0602268064       -0.7528816536        1.2425314176
 S          3.7830123728        1.5863636154        3.1055459085
 O          3.6297626580        1.3827665777        4.5257265850
 O          4.8582240580        0.8406250410        2.4597964217
 C          4.0466087038        3.3327271305        2.8110855314
 N          2.0216169558       -0.6806801921       -1.2009483845
 C          1.2492098657       -1.2711866193       -2.1602875883
 N          1.9086119844       -1.7716103972       -3.1577670259
 C          3.2252313642       -1.5080141765       -2.8772403974
 C          3.3179796647       -0.8074174165       -1.6483631259
 C          4.6046907771       -0.4566579861       -1.2080983849
 C          5.2406331090        0.1962593978       -0.1154877318
 C          6.5822687812        0.1783021583       -0.3629998729
 N          6.8340916710       -0.4470373539       -1.5454676754
 C          5.6555011961       -0.8479562450       -2.0890612134
 N          5.5632862933       -1.4973417533       -3.2525337371
 C          4.3499918726       -1.8174626642       -3.6443517588
 H          3.1055424894        1.4561874257       -0.2433346613
 H          1.5208061705        2.0208743016       -0.7662819300
 H          2.4166347452        3.0616967473        1.3675220178
 H          0.7876124652        2.3803772805        1.5031536199
 H          2.2166649958       -0.4907079546        3.3768300116
 H          0.6559070534        0.0508338443        2.7052609011
 H          1.6351493628       -1.7570034936        1.2800400391
 H          3.1465150301       -0.8520472573        1.1758148038
 H          0.1831520867       -1.3281618377       -2.1046719675
 H          4.7996027964        0.6347267366        0.7575560195
 H          7.3738330412        0.5770589937        0.2391830033
 H          4.2595070776       -2.3433672432       -4.5824133821
 H          7.7363575385       -0.5974477662       -1.9651767072
 H         -0.3870076911       -1.0132428544        0.0501128777
 H         -0.3831718418        0.5767217932        0.8387059906
 H         -0.3631592417        0.4176141786       -0.9319383218
 H          3.0619770277        3.7528224082        2.6654572129
 H          4.6695798314        3.4563352217        1.9368332053
 H          4.5299955220        3.7449309015        3.6865525283
  42
    -4.915614 !GC
 C          0.0000000000        0.0000000000        0.0000000000
 C          1.5295833737        0.0000000000        0.0000000000
 C          2.0641684431        1.4433101150        0.0000000000
 C          1.7371720742        2.1587033703        1.3088715490
 N          2.2667702687        1.4303661102        2.4397926877
 C          1.8465303837        0.0471664887        2.5329789800
 C          2.0472978389       -0.7586344785        1.2439198344
 S          3.7860086945        1.8316022373        2.9672206064
 O          4.8619038836        1.6718026240        1.9946254311
 O          3.6284552626        3.1502278264        3.5310865149
 C          4.0508474134        0.6711588202        4.3055799160
 N          2.0212985983       -0.6678549348       -1.2081533174
 C          1.2485398146       -1.1689992017       -2.2167724875
 N          1.9062898071       -1.7649746581       -3.1612771677
 C          3.2218758970       -1.6796039108       -2.7823520960
 C          3.3154072634       -1.0008907686       -1.5419388172
 C          4.6013242485       -0.8267039405       -1.0044509443
 C          5.2393031810       -0.2432788978        0.1257319713
 C          6.5784971893       -0.4669477416       -0.0091042548
 N          6.8268710892       -1.1554299336       -1.1565846724
 C          5.6486936258       -1.3916106151       -1.7900556892
 N          5.5544599756       -2.0447398095       -2.9512613242
 C          4.3423456111       -2.1920845781       -3.4381815995
 H          3.1505627967        1.4345824611       -0.1194914616
 H          1.6402340734        1.9948073252       -0.8404973193
 H          2.2218268445        3.1357780870        1.3278706306
 H          0.6609249108        2.2813493951        1.4435078607
 H          2.4202507452       -0.4211107171        3.3299887221
 H          0.7912766694        0.0503478829        2.8185478515
 H          1.5195172852       -1.7086736717        1.3381540234
 H          3.1058693814       -0.9726866398        1.1238859740
 H          0.1833062591       -1.0813151629       -2.2406945560
 H          4.8014291105        0.2823242295        0.9509843357
 H          7.3710399557       -0.1731465617        0.6494897670
 H          4.2511164002       -2.7164759675       -4.3770403991
 H          7.7263981632       -1.4500582062       -1.4980236412
 H         -0.3869446846       -1.0054798484       -0.1473122858
 H         -0.3851196138        0.4412069081        0.9153502755
 H         -0.3608092161        0.6213227395       -0.8107117350
 H          4.6651628998       -0.1447926959        3.9523337365
 H          3.0658873492        0.3363476542        4.5971838432
 H          4.5446643919        1.2016327774        5.1084543628
  42
    -4.914819 !GC
 C          0.0000000000        0.0000000000        0.0000000000
 C          1.5296513770        0.0000000000        0.0000000000
 C          2.0633013955        1.4435624834        0.0000000000
 C          1.7333737726        2.1597174305        1.3077825445
 N          2.2613505109        1.4325272405        2.4401830530
 C          1.8439300659        0.0484106095        2.5328318233
 C          2.0487450303       -0.7574047045        1.2442571372
 S          3.7783219030        1.8373073291        2.9714283328
 O          4.8577869837        1.6797113749        2.0021514852
 O          3.6159396804        3.1557081741        3.5347171815
 C          4.0422062850        0.6786277671        4.3113971945
 N          2.0208845253       -0.6683725572       -1.2080249135
 C          1.2481143305       -1.1741868523       -2.2142803866
 N          1.9062982870       -1.7694023142       -3.1589940079
 C          3.2224222163       -1.6769264719       -2.7835662529
 C          3.3158586055       -0.9951707007       -1.5446324748
 C          4.6022670058       -0.8133262075       -1.0108284724
 C          5.2397022262       -0.2258116117        0.1175135799
 C          6.5798894991       -0.4411649212       -0.0210633771
 N          6.8292833147       -1.1286650554       -1.1688826066
 C          5.6508152888       -1.3723720048       -1.7989915994
 N          5.5570249712       -2.0274365704       -2.9591368058
 C          4.3443837697       -2.1834114487       -3.4418652252
 H          3.1499406094        1.4355054913       -0.1170199505
 H          1.6407890406        1.9944768983       -0.8416242854
 H          2.2176184711        3.1369370669        1.3271514182
 H          0.6569159680        2.2819885041        1.4407608994
 H          2.4171457689       -0.4181679500        3.3311400785
 H          0.7880943703        0.0490625550        2.8163183175
 H          1.5238255860       -1.7090798816        1.3381288744
 H          3.1081065303       -0.9681492079        1.1248191075
 H          0.1824971823       -1.0912097135       -2.2361940786
 H          4.8007492840        0.2971252271        0.9438754138
 H          7.3722339203       -0.1422014886        0.6354239149
 H          4.2535539781       -2.7103748628       -4.3792938566
 H          7.7297334466       -1.4186930995       -1.5119653386
 H         -0.3849615552        0.3701267712        0.9463750561
 H         -0.3831509878        0.5800786425       -0.8363499296
 H         -0.3649688045       -1.0148600248       -0.0994890637
 H          4.6584941355       -0.1369506609        3.9608215447
 H          3.0570439292        0.3431823933        4.6014275904
 H          4.5335074556        1.2108312981        5.1147016103
  42
    -4.887115 !GC
 C          0.0000000000        0.0000000000        0.0000000000
 C          1.5296314429        0.0000000000        0.0000000000
 C          2.0598988262        1.4452494014        0.0000000000
 C          1.7405874465        2.1581652671        1.3124892855
 N          2.2712395588        1.4263719498        2.4408283544
 C          1.8481910544        0.0438035052        2.5311264410
 C          2.0507419850       -0.7585844924        1.2405402918
 S          3.7942396921        1.8210969367        2.9630882006
 O          4.8647797417        1.6721107397        1.9826644668
 O          3.6394804787        3.1337684742        3.5413217024
 C          4.0674419225        0.6479829421        4.2886335292
 N          2.0218393959       -0.6691404213       -1.2072531441
 C          1.2486358950       -1.1907307424       -2.2052956703
 N          1.9084431638       -1.7762087608       -3.1549697328
 C          3.2263552997       -1.6564246522       -2.7938226257
 C          3.3198695424       -0.9665068848       -1.5586039988
 C          4.6082330608       -0.7501922751       -1.0428164413
 C          5.2458079436       -0.1404434100        0.0736417067
 C          6.5892837248       -0.3185521817       -0.0845949377
 N          6.8405336353       -1.0039226173       -1.2333953962
 C          5.6600669888       -1.2831825538       -1.8444989951
 N          5.5676561613       -1.9446521127       -3.0009683367
 C          4.3530137367       -2.1330535979       -3.4668296668
 H          3.1450701894        1.4415419933       -0.1273758975
 H          1.6276853233        1.9973073158       -0.8359153164
 H          2.2288069787        3.1334971187        1.3317032084
 H          0.6653952181        2.2849695332        1.4518544201
 H          2.4190112008       -0.4267401482        3.3287617409
 H          0.7921174569        0.0482143452        2.8135447536
 H          1.5268028244       -1.7109943964        1.3325923474
 H          3.1101117232       -0.9680391651        1.1171354696
 H          0.1817024450       -1.1244247939       -2.2185984188
 H          4.8042468158        0.3719370772        0.9052375704
 H          7.3830886609        0.0046470290        0.5585027967
 H          4.2625792322       -2.6639850001       -4.4020229445
 H          7.7434689035       -1.2677096189       -1.5907981479
 H         -0.3829430487        0.4348516689        0.9203634982
 H         -0.3872446924        0.5523177010       -0.8509629195
 H         -0.3626911241       -1.0159209876       -0.1072629653
 H          4.7011270625       -0.1356584586        3.8988208967
 H          3.1163126237        0.2563801003        4.6201331349
 H          4.5593370422        1.2021763711        5.0763138445
  42
    -4.859860 !GC
 C          0.0000000000        0.0000000000        0.0000000000
 C          1.5297197588        0.0000000000        0.0000000000
 C          2.0469020435        1.4492491779        0.0000000000
 C          1.8456675234        2.1370034366        1.3555683525
 N          2.2670577627        1.3425243487        2.4911883793
 C          1.7359305723       -0.0015610041        2.5308944483
 C          2.0603453258       -0.7535028011        1.2418743608
 S          3.7900254396        1.5821101830        3.1006455255
 O          3.6347159372        1.3964931731        4.5229088521
 O          4.8601298139        0.8205181425        2.4649584412
 C          4.0659722908        3.3230958220        2.7861037757
 N          2.0217539792       -0.6791758662       -1.2016385811
 C          1.2489785689       -1.2697231821       -2.1606345563
 N          1.9087682996       -1.7796840913       -3.1529192955
 C          3.2260287152       -1.5235327312       -2.8688179973
 C          3.3191614756       -0.8173923445       -1.6426287501
 C          4.6060731128       -0.4689804451       -1.2008809014
 C          5.2418980222        0.1954265359       -0.1150080232
 C          6.5844382601        0.1661064133       -0.3569856918
 N          6.8367457593       -0.4778205859       -1.5292127017
 C          5.6579071654       -0.8781209117       -2.0723553529
 N          5.5665531766       -1.5392405977       -3.2292279845
 C          4.3526970187       -1.8516050866       -3.6254222467
 H          3.1056637377        1.4554677306       -0.2453039151
 H          1.5202155602        2.0208596295       -0.7654627947
 H          2.4177562326        3.0623066945        1.3669348164
 H          0.7901176621        2.3786049544        1.5056496819
 H          2.2215064113       -0.4915334742        3.3758682153
 H          0.6601245186        0.0519136780        2.7073340606
 H          1.6329655337       -1.7565671421        1.2798098764
 H          3.1462270949       -0.8553841395        1.1741898378
 H          0.1824113312       -1.3204891119       -2.1080625243
 H          4.8000860722        0.6501550613        0.7493747175
 H          7.3766702165        0.5690392980        0.2415482588
 H          4.2631761268       -2.3853467086       -4.5591780894
 H          7.7389149507       -0.6392114761       -1.9440790618
 H         -0.3852489447       -1.0119714107        0.0905641350
 H         -0.3869265908        0.5764578470        0.8347974851
 H         -0.3612159022        0.4519626351       -0.9176849588
 H          3.1000626651        3.7765508971        2.6166869896
 H          4.6948753681        3.3610941592        1.9088181786
 H          4.5557830604        3.7731950987        3.6388593387
  42
    -4.768989 !GC
 C          0.0000000000        0.0000000000        0.0000000000
 C          1.5298307846        0.0000000000        0.0000000000
 C          2.0482316150        1.4487948534        0.0000000000
 C          1.8480511140        2.1361811897        1.3557081014
 N          2.2718195582        1.3414739245        2.4902516184
 C          1.7394475811       -0.0021369493        2.5309417172
 C          2.0588862763       -0.7547287917        1.2408371674
 S          3.7965674598        1.5786692236        3.0966144707
 O          3.6365564854        1.4193532589        4.5213943778
 O          4.8622831529        0.7983111863        2.4765591273
 C          4.0865986617        3.3115943673        2.7520937407
 N          2.0219200775       -0.6785084822       -1.2020382227
 C          1.2489373471       -1.2616061276       -2.1654970447
 N          1.9089883576       -1.7711667224       -3.1577932353
 C          3.2268695851       -1.5247544937       -2.8678185206
 C          3.3200940735       -0.8251511121       -1.6380016754
 C          4.6079250321       -0.4908093472       -1.1881887429
 C          5.2443466667        0.1596433788       -0.0942919320
 C          6.5877262397        0.1198214955       -0.3299414339
 N          6.8399243543       -0.5169302583       -1.5060522091
 C          5.6602474714       -0.9030897811       -2.0576213699
 N          5.5686455630       -1.5565839283       -3.2188090463
 C          4.3541680452       -1.8587280993       -3.6209610577
 H          3.1071337675        1.4536434028       -0.2451281692
 H          1.5223244396        2.0210995243       -0.7655248363
 H          2.4191812354        3.0620428180        1.3666779189
 H          0.7923904493        2.3764019968        1.5070538301
 H          2.2276857230       -0.4929361220        3.3739936986
 H          0.6642965454        0.0520468849        2.7113487112
 H          1.6274209875       -1.7560654046        1.2791977916
 H          3.1441685738       -0.8613052734        1.1726396951
 H          0.1819214550       -1.3065583097       -2.1164190671
 H          4.8022308087        0.6117517171        0.7714080570
 H          7.3807075048        0.5108982991        0.2755001410
 H          4.2643438948       -2.3873610154       -4.5575340218
 H          7.7428534337       -0.6834663216       -1.9175073578
 H         -0.3859700263        0.5260565289        0.8690111621
 H         -0.3870424672        0.4257324525       -0.9226802505
 H         -0.3606456983       -1.0183819980        0.0776707597
 H          3.1259739360        3.7656859220        2.5555434051
 H          4.7324496669        3.3296640243        1.8861050340
 H          4.5625767075        3.7769418295        3.6050235710
  42
    -4.710553 !GC
 C          0.0000000000        0.0000000000        0.0000000000
 C          1.5295740375        0.0000000000        0.0000000000
 C          2.0573296782        1.4460677656        0.0000000000
 C          1.8008352815        2.1311733456        1.3423830052
 N          2.2602029724        1.3429844928        2.4657989822
 C          1.7699799246       -0.0186097376        2.5071719463
 C          2.0581907963       -0.7900930926        1.2155126741
 S          3.7882266864        1.6161695430        3.0495385654
 O          4.8126018158        1.6006772659        2.0115783505
 O          3.7214828525        2.8117970680        3.8555267512
 C          4.0372274803        0.2300110594        4.1560507677
 N          2.0225164799       -0.6735964010       -1.2041558571
 C          1.2496712932       -1.2355407707       -2.1801872493
 N          1.9116260668       -1.7823444362       -3.1510202272
 C          3.2310900363       -1.5908767020       -2.8292552335
 C          3.3241629774       -0.8905006547       -1.5978965344
 C          4.6128131917       -0.6095172874       -1.1153021362
 C          5.2472161011        0.0195863060       -0.0079024614
 C          6.5934633662       -0.0810084249       -0.2060804319
 N          6.8494453795       -0.7352543601       -1.3718892779
 C          5.6691918494       -1.0738338426       -1.9528095524
 N          5.5803565050       -1.7314551065       -3.1117004127
 C          4.3650992227       -1.9870009591       -3.5429269904
 H          3.1308347957        1.4476164877       -0.1882447314
 H          1.5779749279        2.0178395311       -0.7959534375
 H          2.3481463097        3.0744710072        1.3688173346
 H          0.7371338366        2.3286664335        1.5059099773
 H          2.2701957243       -0.5045090585        3.3423879553
 H          0.6953764640        0.0010991074        2.6934570652
 H          1.5870373013       -1.7727101699        1.2691702464
 H          3.1350090399       -0.9373414343        1.1342862345
 H          0.1810798966       -1.2312753549       -2.1601613206
 H          4.8018321278        0.4914838956        0.8455914781
 H          7.3859058213        0.2775601788        0.4198133902
 H          4.2782017476       -2.5189173109       -4.4780602996
 H          7.7550348006       -0.9428099781       -1.7580680415
 H         -0.3851373448        0.5217433676       -0.8719651201
 H         -0.3859229654       -1.0156524952        0.0146885692
 H         -0.3625622477        0.5124107340        0.8838085024
 H          4.3625647806        0.6314077696        5.1050914763
 H          4.7579857210       -0.4293105936        3.6973038563
 H          3.0814719509       -0.2635132757        4.2817638124
  42
    -4.621903 !GC
 C          0.0000000000        0.0000000000        0.0000000000
 C          1.5297915471        0.0000000000        0.0000000000
 C          2.0522473636        1.4470438871        0.0000000000
 C          1.7833645044        2.1630420363        1.3273258076
 N          2.2828070900        1.4263498770        2.4684196204
 C          1.8202854507        0.0596316584        2.5732734859
 C          2.0562742230       -0.7370899179        1.2898768929
 S          3.8018166378        1.8013597953        3.0153025463
 O          3.7334836647        1.8413380684        4.4567164903
 O          4.8463928667        0.9576616831        2.4463104242
 C          4.0128354055        3.4830259424        2.4383192737
 N          2.0226192643       -0.6758941922       -1.2029387424
 C          1.2502691773       -1.2121584286       -2.1936375677
 N          1.9127328800       -1.7531694659       -3.1674137689
 C          3.2320532868       -1.5808624197       -2.8342729938
 C          3.3244729071       -0.8983669430       -1.5928567069
 C          4.6128640313       -0.6343813938       -1.0999511353
 C          5.2466493881       -0.0195488153        0.0157992336
 C          6.5929753244       -0.1345938593       -0.1735213867
 N          6.8495963545       -0.7850184635       -1.3414089278
 C          5.6696769863       -1.1040315995       -1.9338707124
 N          5.5814564408       -1.7476794810       -3.1006016332
 C          4.3664498517       -1.9818781260       -3.5444914863
 H          3.1271570665        1.4441970796       -0.1798802775
 H          1.5764017996        2.0005890046       -0.8108420897
 H          2.2889703347        3.1264737855        1.3314531396
 H          0.7114568345        2.3218672798        1.4526819098
 H          2.3779226738       -0.4066569186        3.3865739704
 H          0.7609220056        0.1003467216        2.8433680719
 H          1.5738170551       -1.7118835544        1.3747598729
 H          3.1275527006       -0.9036331706        1.1785997361
 H          0.1816921885       -1.1961371657       -2.1805830911
 H          4.8007154378        0.4594217565        0.8649808091
 H          7.3850581715        0.2108555699        0.4601317539
 H          4.2802670425       -2.4986389011       -4.4880428801
 H          7.7554176330       -1.0036538174       -1.7207818311
 H         -0.4030959996       -1.0048572273       -0.0552322641
 H         -0.3788980317        0.5089768751        0.8821303966
 H         -0.3519382149        0.5415381422       -0.8735754565
 H          4.3293172755        4.1080755938        3.2588025620
 H          3.0435335841        3.7778366563        2.0591520941
 H          4.7288112886        3.4649401215        1.6279922911
  42
    -4.621860 !GC
 C          0.0000000000        0.0000000000        0.0000000000
 C          1.5297895285        0.0000000000        0.0000000000
 C          2.0505894379        1.4474746881        0.0000000000
 C          1.7973614312        2.1523337257        1.3364633341
 N          2.2709255845        1.3805886745        2.4650678390
 C          1.7885243452        0.0179189457        2.5240812967
 C          2.0582777691       -0.7551229577        1.2333399467
 S          3.8018005445        1.6861357865        3.0208972872
 O          4.8014610794        1.7157649163        1.9584062424
 O          3.7257218079        2.8637114013        3.8510387704
 C          4.1100187959        0.2816364011        4.0881856391
 N          2.0221012135       -0.6734674129       -1.2049121714
 C          1.2490483414       -1.2194373640       -2.1896625316
 N          1.9111669633       -1.7632278533       -3.1622869634
 C          3.2310112364       -1.5837001549       -2.8335967821
 C          3.3240382423       -0.8939024173       -1.5970051552
 C          4.6127556216       -0.6232764680       -1.1083483077
 C          5.2477591638       -0.0011809141        0.0028562548
 C          6.5939449581       -0.1120600814       -0.1904430672
 N          6.8492114507       -0.7680538118       -1.3552559406
 C          5.6688807461       -1.0933635353       -1.9432622226
 N          5.5794813586       -1.7447030192       -3.1058297471
 C          4.3642378250       -1.9856858741       -3.5450214622
 H          3.1237286037        1.4451223033       -0.1895630920
 H          1.5677481890        2.0064191285       -0.8030007298
 H          2.3375280833        3.0963364261        1.3284444364
 H          0.7345139848        2.3469715518        1.4887503034
 H          2.3076557713       -0.4479113047        3.3631701930
 H          0.7170476787        0.0452358843        2.7408748412
 H          1.5831837672       -1.7352578732        1.2954080513
 H          3.1329503817       -0.9111938482        1.1407276216
 H          0.1800260160       -1.2076901254       -2.1718241027
 H          4.8032343039        0.4800082983        0.8511464784
 H          7.3870566404        0.2400749317        0.4381766075
 H          4.2761392886       -2.5113790364       -4.4834454975
 H          7.7547908866       -0.9839780778       -1.7368389976
 H         -0.3840914585        0.5230884568       -0.8716848377
 H         -0.3863425881       -1.0156079509        0.0132055074
 H         -0.3626637273        0.5086307240        0.8858387616
 H          4.4629786481        0.6732012081        5.0330513318
 H          4.8819435815       -0.3143318231        3.6227664385
 H          3.1807865172       -0.2554190231        4.2109738650
  42
    -4.616833 !GC
 C          0.0000000000        0.0000000000        0.0000000000
 C          1.5296252607        0.0000000000        0.0000000000
 C          2.0574062529        1.4463326292        0.0000000000
 C          1.7904407421        2.1410984134        1.3352333834
 N          2.2742697780        1.3754616361        2.4628136764
 C          1.7970445935        0.0115972531        2.5310631492
 C          2.0488599958       -0.7581683220        1.2304809184
 S          3.8062170022        1.6577725641        3.0254086422
 O          3.7224052506        1.7519767532        4.4628012616
 O          4.7919537187        0.7185907680        2.5008429745
 C          4.1499851428        3.2962380281        2.3900811588
 N          2.0218531224       -0.6738986037       -1.2048147448
 C          1.2484071385       -1.2252251693       -2.1862973920
 N          1.9101265656       -1.7704531265       -3.1584074462
 C          3.2300584862       -1.5875893004       -2.8320917269
 C          3.3236508942       -0.8954588130       -1.5968582279
 C          4.6127590308       -0.6232274686       -1.1100365816
 C          5.2486611529       -0.0015353060        0.0008360459
 C          6.5947256412       -0.1103961780       -0.1944979576
 N          6.8490113287       -0.7619339023       -1.3619917171
 C          5.6682905501       -1.0905373319       -1.9472882885
 N          5.5783210661       -1.7408219146       -3.1104727985
 C          4.3627442717       -1.9860475451       -3.5463449715
 H          3.1319251006        1.4491395517       -0.1821641553
 H          1.5814668254        2.0124260521       -0.8020676411
 H          2.3115738442        3.0987342325        1.3777911422
 H          0.7195069885        2.3127928536        1.4736140586
 H          2.3364809272       -0.4899800274        3.3312565783
 H          0.7342030979        0.0413108657        2.7763409023
 H          1.5644621399       -1.7341744443        1.2860421000
 H          3.1216899965       -0.9199408197        1.1285728899
 H          0.1794086560       -1.2136267060       -2.1681083687
 H          4.8048804282        0.4712258473        0.8542489001
 H          7.3883490690        0.2403634623        0.4342701542
 H          4.2739517437       -2.5110024791       -4.4851589975
 H          7.7541042685       -0.9760777457       -1.7458093067
 H         -0.3857335100        0.5391803407       -0.8610940942
 H         -0.3844087482       -1.0164249151       -0.0061401949
 H         -0.3626734201        0.4928595331        0.8946894747
 H          4.9264512782        3.2023703046        1.6466442057
 H          4.4299260350        3.9159299698        3.2296637693
 H          3.2336950581        3.6745380397        1.9541993337
  42
    -4.512249 !GC
 C          0.0000000000        0.0000000000        0.0000000000
 C          1.5298000002        0.0000000000        0.0000000000
 C          2.0578943840        1.4460211909        0.0000000000
 C          1.7850528574        2.1409266385        1.3338388852
 N          2.2703999614        1.3774697226        2.4625683909
 C          1.7978461932        0.0120320545        2.5313700732
 C          2.0490762991       -0.7577492086        1.2306930055
 S          3.7992755865        1.6670571332        3.0289443584
 O          3.7168158589        1.7252816856        4.4682779077
 O          4.7968132887        0.7543608046        2.4806609450
 C          4.1174242633        3.3251970990        2.4323667715
 N          2.0226465031       -0.6745397783       -1.2039989559
 C          1.2508308860       -1.2245991550       -2.1875222001
 N          1.9142299516       -1.7681053585       -3.1595093180
 C          3.2337255332       -1.5858306289       -2.8305593459
 C          3.3249995906       -0.8955897664       -1.5941936174
 C          4.6128396657       -0.6235175361       -1.1042267426
 C          5.2456740788       -0.0042455405        0.0097819277
 C          6.5922603196       -0.1099600991       -0.1839942481
 N          6.8495621045       -0.7581767892       -1.3527582289
 C          5.6703382111       -1.0874657247       -1.9408061325
 N          5.5827302322       -1.7356330844       -3.1054154926
 C          4.3681854907       -1.9821369026       -3.5433384102
 H          3.1331137114        1.4485374314       -0.1780050678
 H          1.5851880761        2.0113662528       -0.8044630452
 H          2.3014965160        3.1011275297        1.3771241748
 H          0.7129514424        2.3068622457        1.4696126712
 H          2.3404999812       -0.4875318863        3.3308325616
 H          0.7354900479        0.0389448210        2.7795566618
 H          1.5643135369       -1.7335559475        1.2868357540
 H          3.1218781260       -0.9199550098        1.1286928390
 H          0.1817779961       -1.2126207270       -2.1713208412
 H          4.7989465747        0.4639048094        0.8641235087
 H          7.3842858117        0.2404163579        0.4469620118
 H          4.2816586923       -2.5060665032       -4.4829881766
 H          7.7557435155       -0.9702545792       -1.7351956817
 H         -0.3953216942       -1.0107878795       -0.0521897719
 H         -0.3564273106        0.4826098922        0.9099886779
 H         -0.3814307279        0.5646250045       -0.8395311392
 H          4.5254069096        3.8904013305        3.2577409541
 H          3.2090149444        3.7490055475        2.0330389611
 H          4.8711722600        3.2163385547        1.6622297885
  42
    -4.495412 !GC
 C          0.0000000000        0.0000000000        0.0000000000
 C          1.5298102196        0.0000000000        0.0000000000
 C          2.0504784362        1.4476373719        0.0000000000
 C          1.8001153726        2.1521983403        1.3372260057
 N          2.2741355440        1.3786090115        2.4639977873
 C          1.7880192687        0.0176157746        2.5239204099
 C          2.0577166333       -0.7550306078        1.2328893186
 S          3.8110803332        1.6681280656        3.0098196737
 O          4.8075770628        1.6697813210        1.9440524082
 O          3.7560638415        2.8560572081        3.8268964301
 C          4.1011133059        0.2711616409        4.0920125153
 N          2.0228622807       -0.6729910633       -1.2048719065
 C          1.2506879534       -1.2216779023       -2.1887486132
 N          1.9136911199       -1.7664078762       -3.1602814835
 C          3.2332530353       -1.5840583648       -2.8319490414
 C          3.3251287547       -0.8922668478       -1.5964051989
 C          4.6133094729       -0.6185223840       -1.1080907907
 C          5.2469827994        0.0065980362        0.0021674210
 C          6.5933834977       -0.1022966658       -0.1907432814
 N          6.8499934569       -0.7584488906       -1.3552388700
 C          5.6703447611       -1.0877233189       -1.9423649339
 N          5.5821082291       -1.7411069239       -3.1038940915
 C          4.3672871840       -1.9850853901       -3.5426851327
 H          3.1232443667        1.4454615029       -0.1916603583
 H          1.5659595771        2.0067808747       -0.8018745175
 H          2.3413329040        3.0956556696        1.3296289819
 H          0.7377822877        2.3484544992        1.4911034535
 H          2.3053702916       -0.4493526293        3.3634318914
 H          0.7163495878        0.0472091617        2.7393627261
 H          1.5823578056       -1.7350600908        1.2937173578
 H          3.1324347820       -0.9111546733        1.1407865613
 H          0.1816439599       -1.2109696904       -2.1712864690
 H          4.8014474568        0.4886053377        0.8494015232
 H          7.3857872407        0.2521128873        0.4374525103
 H          4.2803766984       -2.5125413007       -4.4802234419
 H          7.7560338133       -0.9724830479       -1.7368385562
 H         -0.3957268639        0.4838750937        0.8885433624
 H         -0.4037304742        0.4705455722       -0.8890088866
 H         -0.3331406267       -1.0348848498        0.0043212650
 H          3.1526313470       -0.2263792899        4.2350644379
 H          4.4401179048        0.7010321600        5.0252580931
 H          4.8514598472       -0.3778578624        3.6647024019
  42
    -4.449335 !GC
 C          0.0000000000        0.0000000000        0.0000000000
 C          1.5298350743        0.0000000000        0.0000000000
 C          2.0576073611        1.4459640495        0.0000000000
 C          1.7803489407        2.1428089621        1.3318278369
 N          2.2588880496        1.3834086414        2.4671233989
 C          1.7934812264        0.0144148782        2.5325319468
 C          2.0499838202       -0.7562083178        1.2336832425
 S          3.7689614399        1.7191705074        3.0638796108
 O          3.6567525699        1.7526561678        4.5021301528
 O          4.8053508984        0.8460133886        2.5238361456
 C          4.0490514880        3.3944327593        2.4971987993
 N          2.0228531053       -0.6757864389       -1.2031553329
 C          1.2512563547       -1.2258364417       -2.1867802049
 N          1.9149603162       -1.7716840722       -3.1572196219
 C          3.2343008640       -1.5905983508       -2.8273302895
 C          3.3252821890       -0.8986702790       -1.5919007925
 C          4.6130262723       -0.6289296484       -1.1004150677
 C          5.2454755044       -0.0102161836        0.0140607068
 C          6.5921019439       -0.1221399445       -0.1758429905
 N          6.8496900379       -0.7721278130       -1.3434912416
 C          5.6707439318       -1.0973954128       -1.9341375995
 N          5.5835370497       -1.7471912852       -3.0978651847
 C          4.3689814004       -1.9909199425       -3.5375288719
 H          3.1332889012        1.4486694244       -0.1754110047
 H          1.5867746623        2.0106453432       -0.8060746381
 H          2.2989679616        3.1018390933        1.3740734285
 H          0.7078293715        2.3105968799        1.4627245464
 H          2.3368000391       -0.4826882727        3.3331199807
 H          0.7306210116        0.0368145541        2.7790212260
 H          1.5691893081       -1.7340345371        1.2909255335
 H          3.1235810222       -0.9140710784        1.1336460358
 H          0.1822091854       -1.2125932873       -2.1712670335
 H          4.7984739926        0.4621583588        0.8659832484
 H          7.3840159655        0.2254615840        0.4567725640
 H          4.2824626629       -2.5162296696       -4.4763320851
 H          7.7560613348       -0.9886373032       -1.7228700518
 H         -0.3670462523        0.4766027231        0.9084656689
 H         -0.3736401051        0.5470685649       -0.8617873102
 H         -0.3923163697       -1.0061746013       -0.0432010016
 H          4.3535109843        4.0112872715        3.3286849680
 H          3.1017847049        3.7143963990        2.0838069383
 H          4.7918824042        3.3569890953        1.7118311033
  42
    -4.423405 !GC
 C          0.0000000000        0.0000000000        0.0000000000
 C          1.5297192542        0.0000000000        0.0000000000
 C          2.0576288227        1.4463974475        0.0000000000
 C          1.7897106119        2.1412568279        1.3351198109
 N          2.2732696799        1.3757737738        2.4629060207
 C          1.7966643297        0.0117451532        2.5312765371
 C          2.0487069494       -0.7581579723        1.2307216401
 S          3.8049677901        1.6576442286        3.0259802370
 O          3.7212717274        1.7480294230        4.4636755700
 O          4.7913176613        0.7203095603        2.4992491630
 C          4.1471437137        3.2985651465        2.3958164147
 N          2.0219544306       -0.6743036552       -1.2045943159
 C          1.2488945541       -1.2248105391       -2.1867513040
 N          1.9110238576       -1.7694595658       -3.1589633202
 C          3.2308630905       -1.5867616327       -2.8321033147
 C          3.3238884396       -0.8954395710       -1.5964169089
 C          4.6126931924       -0.6214536144       -1.1099038403
 C          5.2478074224        0.0009699594        0.0009617942
 C          6.5939279798       -0.1031258614       -0.1962569290
 N          6.8490167384       -0.7535618210       -1.3642712005
 C          5.6686827030       -1.0850874035       -1.9486386019
 N          5.5793237118       -1.7350845035       -3.1120002739
 C          4.3639116007       -1.9831869931       -3.5468969841
 H          3.1322441163        1.4489486119       -0.1816314264
 H          1.5824058819        2.0123940481       -0.8025589415
 H          2.3100660950        3.0992623599        1.3783903100
 H          0.7185203905        2.3122030270        1.4726485086
 H          2.3359582645       -0.4897297345        3.3316081633
 H          0.7338891690        0.0409008320        2.7768383552
 H          1.5641586817       -1.7340821632        1.2863979538
 H          3.1214593655       -0.9203622138        1.1290449773
 H          0.1799078992       -1.2129915470       -2.1689780043
 H          4.8033603231        0.4710870467        0.8555284365
 H          7.3872078441        0.2504836937        0.4312771371
 H          4.2756405909       -2.5069953848       -4.4863838243
 H          7.7545052935       -0.9633980451       -1.7497329275
 H         -0.3552321291       -1.0295984922       -0.0416248707
 H         -0.4040696970        0.4783311138        0.8849120812
 H         -0.3732849448        0.5180306454       -0.8756988393
 H          4.5206358860        3.8893216212        3.2196252775
 H          3.2546252527        3.7064668417        1.9477328959
 H          4.9309208831        3.1688897239        1.6599076979
  42
    -4.409005 !GC
 C          0.0000000000        0.0000000000        0.0000000000
 C          1.5298193036        0.0000000000        0.0000000000
 C          2.0514442972        1.4473004032        0.0000000000
 C          1.7807916010        2.1645628483        1.3262865909
 N          2.2799858682        1.4302526603        2.4692251481
 C          1.8174125071        0.0633875369        2.5754091883
 C          2.0541086298       -0.7358806815        1.2937696033
 S          3.8022286227        1.8023575844        3.0098195102
 O          3.7363031277        1.8570007670        4.4507590343
 O          4.8400536774        0.9457794367        2.4481619523
 C          4.0244653688        3.4764187733        2.4158879694
 N          2.0221091606       -0.6759132500       -1.2031043073
 C          1.2497039725       -1.2108015391       -2.1944763061
 N          1.9120012839       -1.7571473992       -3.1653684407
 C          3.2313253404       -1.5896336940       -2.8296876017
 C          3.3238839607       -0.9046058505       -1.5896798822
 C          4.6122523553       -0.6439806129       -1.0949258223
 C          5.2462039481       -0.0270400616        0.0195612996
 C          6.5924637091       -0.1484628308       -0.1662767068
 N          6.8489343106       -0.8056150526       -1.3304337138
 C          5.6689908558       -1.1215434867       -1.9245081065
 N          5.5806357129       -1.7687923276       -3.0891898983
 C          4.3657014886       -1.9976490907       -3.5361075617
 H          3.1266063967        1.4447355494       -0.1784776468
 H          1.5764758843        2.0000576419       -0.8119260695
 H          2.2853338805        3.1285624460        1.3297886547
 H          0.7084681038        2.3219571503        1.4499677719
 H          2.3746411366       -0.4012154246        3.3899983769
 H          0.7578936833        0.1044277219        2.8448586370
 H          1.5715666371       -1.7104940701        1.3801236586
 H          3.1255208758       -0.9026786325        1.1836038927
 H          0.1811804838       -1.1890956629       -2.1843979146
 H          4.8004864186        0.4578750833        0.8654016096
 H          7.3847872304        0.1965760422        0.4673431808
 H          4.2798438301       -2.5183104912       -4.4775230780
 H          7.7546558756       -1.0293923517       -1.7069261563
 H         -0.3967230505        0.4661448755        0.8949027158
 H         -0.3678037703        0.5149815478       -0.8863764945
 H         -0.3697983777       -1.0178685548       -0.0457230936
 H          4.3525315685        4.1057343202        3.2286747723
 H          3.0547156858        3.7767816385        2.0412891109
 H          4.7344670057        3.4446773717        1.6007030865
  42
    -4.378257 !GC
 C          0.0000000000        0.0000000000        0.0000000000
 C          1.5295601592        0.0000000000        0.0000000000
 C          2.0574355505        1.4461897927        0.0000000000
 C          1.7886234482        2.1409280860        1.3349300370
 N          2.2728166563        1.3763881868        2.4633027081
 C          1.7976391922        0.0117578458        2.5311805120
 C          2.0491688227       -0.7579484560        1.2305330216
 S          3.8022501220        1.6641278109        3.0305778921
 O          3.7174791376        1.7312841553        4.4694882574
 O          4.7974517632        0.7446368124        2.4893722109
 C          4.1291692096        3.3174422102        2.4253259010
 N          2.0227866550       -0.6741634563       -1.2041646811
 C          1.2505869794       -1.2247164737       -2.1869738633
 N          1.9135313656       -1.7658191025       -3.1605167719
 C          3.2330187575       -1.5803992159       -2.8340043134
 C          3.3250923423       -0.8911636198       -1.5970987485
 C          4.6134506674       -0.6166976526       -1.1095423630
 C          5.2474869727        0.0033911096        0.0032161809
 C          6.5938232456       -0.1006679334       -0.1926275938
 N          6.8501850199       -0.7487083663       -1.3616538325
 C          5.6703068692       -1.0782377054       -1.9483206955
 N          5.5817757815       -1.7247643193       -3.1136322691
 C          4.3668242914       -1.9728752739       -3.5496515072
 H          3.1320055424        1.4489525259       -0.1820752315
 H          1.5818369078        2.0120565186       -0.8023284639
 H          2.3081542794        3.0994462275        1.3773730943
 H          0.7172125112        2.3104657537        1.4721596963
 H          2.3383530992       -0.4891102132        3.3310558214
 H          0.7349968794        0.0403450579        2.7776308424
 H          1.5644548365       -1.7336934434        1.2863451282
 H          3.1219724403       -0.9202618152        1.1282500372
 H          0.1815707025       -1.2153085680       -2.1686625502
 H          4.8021153379        0.4712717314        0.8584261123
 H          7.3863261762        0.2503864446        0.4373528777
 H          4.2795359231       -2.4968933214       -4.4890780217
 H          7.7559253692       -0.9602930894       -1.7453388174
 H         -0.3661489949        0.4872592704        0.9033366849
 H         -0.3730558435        0.5376044094       -0.8679089070
 H         -0.3927287360       -1.0065221711       -0.0318399027
 H          4.4506638733        3.8783554774        3.2926802560
 H          3.1960130326        3.7135732975        2.0518541172
 H          4.9009596443        3.2881533535        1.6705247713
  42
    -4.357122 !GC
 C          0.0000000000        0.0000000000        0.0000000000
 C          1.5296358587        0.0000000000        0.0000000000
 C          2.0574896714        1.4461734937        0.0000000000
 C          1.7864957819        2.1409889222        1.3343272712
 N          2.2711256306        1.3769351999        2.4627997476
 C          1.7974030117        0.0118559124        2.5311936198
 C          2.0488601135       -0.7580471861        1.2306078611
 S          3.8007432233        1.6638446740        3.0297756219
 O          3.7174056144        1.7255139148        4.4690206232
 O          4.7964254545        0.7476154526        2.4840389901
 C          4.1254190567        3.3196292794        2.4305361380
 N          2.0229417529       -0.6741764914       -1.2040990609
 C          1.2510868617       -1.2229193585       -2.1882364693
 N          1.9143430597       -1.7655348438       -3.1607845923
 C          3.2338089398       -1.5836658828       -2.8317924186
 C          3.3253483286       -0.8948539315       -1.5946390186
 C          4.6134004122       -0.6236018092       -1.1046278954
 C          5.2467919700       -0.0052044249        0.0094731106
 C          6.5932782456       -0.1126194692       -0.1838719492
 N          6.8501480437       -0.7608399813       -1.3527232455
 C          5.6706460475       -1.0880763867       -1.9413105497
 N          5.5827441360       -1.7350455127       -3.1064446790
 C          4.3680410990       -1.9800269678       -3.5448885519
 H          3.1324800121        1.4490501682       -0.1794907543
 H          1.5835183517        2.0115937592       -0.8036435519
 H          2.3046243224        3.1002573443        1.3771800035
 H          0.7146763263        2.3087959426        1.4705506473
 H          2.3391124944       -0.4883298262        3.3309203912
 H          0.7349179837        0.0393805322        2.7786365703
 H          1.5638076386       -1.7337281118        1.2865522792
 H          3.1216918231       -0.9205289975        1.1288074638
 H          0.1820592479       -1.2111598143       -2.1716763551
 H          4.8008493622        0.4634399365        0.8639711391
 H          7.3856010856        0.2360422408        0.4476319242
 H          4.2814269755       -2.5026350334       -4.4851689012
 H          7.7561800914       -0.9741239346       -1.7349682442
 H         -0.3953459695       -1.0112721835       -0.0394199035
 H         -0.3563446860        0.4941346574        0.9037244578
 H         -0.3810317163        0.5538922059       -0.8468101801
 H          3.1792850895        3.6777733145        2.0509956412
 H          4.8781490294        3.2783339850        1.6565456265
 H          4.4631669122        3.9136737320        3.2687865252
  42
    -4.322266 !GC
 C          0.0000000000        0.0000000000        0.0000000000
 C          1.5296788812        0.0000000000        0.0000000000
 C          2.0556432136        1.4467063017        0.0000000000
 C          1.7866607830        2.1437509034        1.3346034504
 N          2.2606885642        1.3803618405        2.4687494518
 C          1.7877399748        0.0139309944        2.5317685608
 C          2.0522828999       -0.7547377378        1.2344447609
 S          3.7682751269        1.6802158331        3.0895150597
 O          3.6608769353        1.5526616677        4.5234651222
 O          4.8238230176        0.8997970325        2.4541658247
 C          4.0071518718        3.4128493827        2.7073667477
 N          2.0211478681       -0.6772467138       -1.2030303796
 C          1.2470616762       -1.2312037204       -2.1826483246
 N          1.9080382476       -1.7845369463       -3.1505772333
 C          3.2279901703       -1.6040026675       -2.8240022060
 C          3.3224794266       -0.9030257528       -1.5935339538
 C          4.6119867452       -0.6308985933       -1.1078169850
 C          5.2485087435        0.0035739140       -0.0046123875
 C          6.5944249309       -0.1155434470       -0.1947798420
 N          6.8480743761       -0.7900219245       -1.3494102390
 C          5.6669274037       -1.1161940049       -1.9354014540
 N          5.5762491814       -1.7777412903       -3.0920809015
 C          4.3603845400       -2.0155426116       -3.5313742035
 H          3.1296357663        1.4508279240       -0.1843541101
 H          1.5785001482        2.0119659080       -0.8020241567
 H          2.3174907116        3.0962245320        1.3732833880
 H          0.7156294871        2.3198999542        1.4666050846
 H          2.3157207737       -0.4845194929        3.3414973243
 H          0.7230115397        0.0410878556        2.7696184526
 H          1.5779337372       -1.7355168143        1.2896152897
 H          3.1274400724       -0.9041572468        1.1368505613
 H          0.1782054061       -1.2177683504       -2.1659962697
 H          4.8054682664        0.5177600995        0.8251130401
 H          7.3883772397        0.2455273591        0.4276889561
 H          4.2712226995       -2.5457813968       -4.4671300826
 H          7.7530283694       -1.0116257541       -1.7291593387
 H         -0.3515426820       -1.0258968390       -0.0443687397
 H         -0.4185213170        0.4905106699        0.8763503234
 H         -0.3627763266        0.4957592820       -0.8931329676
 H          4.7347331833        3.4612406106        1.9086611691
 H          4.3598132681        3.9021233111        3.6028005985
 H          3.0615804198        3.8087284792        2.3618953968
  42
    -4.321332 !GC
 C          0.0000000000        0.0000000000        0.0000000000
 C          1.5297523096        0.0000000000        0.0000000000
 C          2.0457813162        1.4496085286        0.0000000000
 C          1.8427878252        2.1377179185        1.3552442815
 N          2.2609440495        1.3435759782        2.4922949760
 C          1.7318033000       -0.0012667052        2.5308601044
 C          2.0609946014       -0.7526348884        1.2427494265
 S          3.7812766001        1.5866689251        3.1074186453
 O          3.6271154747        1.3819470555        4.5273728010
 O          4.8572788982        0.8418580989        2.4619475998
 C          4.0444392628        3.3334647883        2.8153153417
 N          2.0214495890       -0.6808546919       -1.2008551120
 C          1.2490121269       -1.2759045487       -2.1572986374
 N          1.9080962882       -1.7771607734       -3.1545244653
 C          3.2243614206       -1.5083920556       -2.8774872476
 C          3.3173391620       -0.8039461072       -1.6507493688
 C          4.6035145409       -0.4453726360       -1.2151941381
 C          5.2393940262        0.2169256614       -0.1281153053
 C          6.5804305020        0.2044609734       -0.3795346751
 N          6.8318217722       -0.4264188659       -1.5590560693
 C          5.6537169977       -0.8358247295       -2.0971914182
 N          5.5614548291       -1.4901664881       -3.2578739073
 C          4.3485589444       -1.8160161292       -3.6460951277
 H          3.1047884730        1.4573974188       -0.2437271585
 H          1.5195364451        2.0209523153       -0.7659676015
 H          2.4167317307        3.0618922998        1.3673424972
 H          0.7874304290        2.3813204995        1.5032723600
 H          2.2161574677       -0.4901959215        3.3770456413
 H          0.6554394600        0.0500026202        2.7044545859
 H          1.6374647387       -1.7574087114        1.2799662475
 H          3.1474401382       -0.8502172152        1.1761856168
 H          0.1831381671       -1.3351692446       -2.1001019562
 H          4.7987630169        0.6580758888        0.7438816848
 H          7.3718578444        0.6108393514        0.2177239226
 H          4.2581335931       -2.3457421802       -4.5820147605
 H          7.7331571950       -0.5741593252       -1.9810501498
 H         -0.3836965804        0.5800823851        0.8339036405
 H         -0.3849198633        0.4425788148       -0.9147677671
 H         -0.3649662023       -1.0163929517        0.1006907320
 H          4.6500260854        3.4296413940        1.9278021508
 H          4.5103869748        3.7410256292        3.7004773480
 H          3.0720246829        3.7897081808        2.6770954717
  42
    -4.320315 !GC
 C          0.0000000000        0.0000000000        0.0000000000
 C          1.5296967967        0.0000000000        0.0000000000
 C          2.0574410468        1.4460242443        0.0000000000
 C          1.7814412387        2.1425254084        1.3324646922
 N          2.2596596519        1.3821771725        2.4671584805
 C          1.7930992982        0.0136206621        2.5321297697
 C          2.0503861565       -0.7564269163        1.2331653246
 S          3.7708541358        1.7115320765        3.0644646634
 O          3.6603287532        1.7355139108        4.5031065201
 O          4.8057339402        0.8415218346        2.5162078515
 C          4.0513301806        3.3905852298        2.5089243618
 N          2.0222888286       -0.6755368130       -1.2034607446
 C          1.2503624577       -1.2266936812       -2.1861389767
 N          1.9137184193       -1.7735977388       -3.1562110293
 C          3.2331339397       -1.5918525625       -2.8271826081
 C          3.3246523197       -0.8981908193       -1.5927807501
 C          4.6126384996       -0.6265616024       -1.1028248178
 C          5.2458005368       -0.0048673597        0.0095548462
 C          6.5923138567       -0.1159317750       -0.1815069084
 N          6.8493415415       -0.7688267870       -1.3476289712
 C          5.6699757527       -1.0955667328       -1.9367545840
 N          5.5821649880       -1.7468131567       -3.0995789252
 C          4.3674311338       -1.9919905505       -3.5379625449
 H          3.1328504420        1.4488243818       -0.1772395587
 H          1.5853513799        2.0109844422       -0.8051014316
 H          2.3011254576        3.1009522124        1.3746604596
 H          0.7092278486        2.3116577731        1.4638897148
 H          2.3351426145       -0.4838203621        3.3333667898
 H          0.7300349160        0.0367388259        2.7775481609
 H          1.5703378492       -1.7345824465        1.2896197400
 H          3.1240876446       -0.9135116421        1.1329622884
 H          0.1813355032       -1.2129741488       -2.1704306105
 H          4.7995637757        0.4694219396        0.8607760775
 H          7.3844689547        0.2343994691        0.4493078797
 H          4.2806947639       -2.5202670823       -4.4750776472
 H          7.7553576982       -0.9860972117       -1.7275033775
 H         -0.3666197180        0.4842801101        0.9047307527
 H         -0.3733720055        0.5400692541       -0.8663681841
 H         -0.3923338580       -1.0065829012       -0.0348983098
 H          3.1200836588        3.7548423975        2.0999062529
 H          4.8220953604        3.3176009321        1.7554544491
 H          4.3745408657        4.0010561347        3.3409720961
  42
    -4.315855 !GC
 C          0.0000000000        0.0000000000        0.0000000000
 C          1.5297785520        0.0000000000        0.0000000000
 C          2.0579422138        1.4460439743        0.0000000000
 C          1.7876063660        2.1410723511        1.3343719624
 N          2.2711560455        1.3769877422        2.4635496360
 C          1.7968562221        0.0119686223        2.5313725209
 C          2.0494265219       -0.7575288137        1.2309440164
 S          3.7982725942        1.6721604175        3.0323391962
 O          3.7098105042        1.7476101427        4.4704742469
 O          4.7964081044        0.7509156555        2.4995465065
 C          4.1213233609        3.3225423643        2.4164405653
 N          2.0219243115       -0.6746731933       -1.2042317042
 C          1.2492291458       -1.2280244893       -2.1852035652
 N          1.9118074528       -1.7723623846       -3.1572756804
 C          3.2315537253       -1.5872364882       -2.8310835592
 C          3.3239387323       -0.8944255975       -1.5961928916
 C          4.6123621947       -0.6190640488       -1.1094749897
 C          5.2465878300        0.0036528034        0.0018418286
 C          6.5929219233       -0.0993466802       -0.1949702202
 N          6.8488457012       -0.7495843162       -1.3628735837
 C          5.6689426003       -1.0825864847       -1.9474437749
 N          5.5801632305       -1.7331040360       -3.1106421972
 C          4.3651634361       -1.9824083989       -3.5456669757
 H          3.1328218659        1.4483639035       -0.1800382987
 H          1.5839579527        2.0119517112       -0.8033314481
 H          2.3064922656        3.0999882079        1.3774448748
 H          0.7160420573        2.3098908932        1.4708644630
 H          2.3376555731       -0.4884189014        3.3314451654
 H          0.7341016157        0.0401036332        2.7774132411
 H          1.5659839002       -1.7339068897        1.2869183664
 H          3.1224305854       -0.9183898805        1.1291411923
 H          0.1801912825       -1.2175512339       -2.1671561801
 H          4.8011173079        0.4723146598        0.8566399064
 H          7.3855593489        0.2541969555        0.4334887917
 H          4.2774579670       -2.5082424048       -4.4841528122
 H          7.7544877051       -0.9602209895       -1.7471411927
 H         -0.3660890909        0.4795995714        0.9074400008
 H         -0.3737933591        0.5447624319       -0.8631291108
 H         -0.3930548744       -1.0059820478       -0.0400324146
 H          4.5072872212        3.9035706236        3.2414540980
 H          3.2199087358        3.7341797399        1.9894567416
 H          4.8933827531        3.2058447805        1.6657964600
  42
    -4.305671 !GC
 C          0.0000000000        0.0000000000        0.0000000000
 C          1.5296687879        0.0000000000        0.0000000000
 C          2.0608436097        1.4447032112        0.0000000000
 C          1.7378309087        2.1586061836        1.3109730464
 N          2.2677021536        1.4284729784        2.4407093813
 C          1.8470742592        0.0452354591        2.5319024841
 C          2.0501815702       -0.7579420244        1.2417450489
 S          3.7887314154        1.8258153086        2.9669564311
 O          4.8640888725        1.6587919302        1.9948903132
 O          3.6360491011        3.1466968276        3.5268638501
 C          4.0492638665        0.6698237144        4.3097970411
 N          2.0213698547       -0.6692571818       -1.2073769001
 C          1.2483294353       -1.1854437976       -2.2082454958
 N          1.9079905338       -1.7688633966       -3.1592700602
 C          3.2256473671       -1.6545419859       -2.7954109040
 C          3.3191321736       -0.9698277171       -1.5572278860
 C          4.6070637471       -0.7624700194       -1.0365780429
 C          5.2442116879       -0.1646324383        0.0865620007
 C          6.5872513522       -0.3481610221       -0.0688537770
 N          6.8387759182       -1.0257472737       -1.2221887783
 C          5.6587735746       -1.2947628613       -1.8388991477
 N          5.5665346806       -1.9490958896       -2.9994308859
 C          4.3522518752       -2.1311008635       -3.4687159239
 H          3.1464867883        1.4400133723       -0.1240991032
 H          1.6315107706        1.9961662086       -0.8377562196
 H          2.2242828037        3.1347888127        1.3302533321
 H          0.6621199406        2.2834262121        1.4479397983
 H          2.4197073958       -0.4238638255        3.3291653492
 H          0.7912880106        0.0476407260        2.8153841532
 H          1.5262163924       -1.7102726383        1.3343361986
 H          3.1096116564       -0.9676172322        1.1196082439
 H          0.1816453535       -1.1162471954       -2.2228284856
 H          4.8027366679        0.3436372228        0.9207871673
 H          7.3805659041       -0.0340563710        0.5793540033
 H          4.2620066243       -2.6562221134       -4.4072219296
 H          7.7414245724       -1.2906717579       -1.5794229713
 H         -0.3863507292       -1.0094012814       -0.1200138360
 H         -0.3853123469        0.4652962469        0.9033305954
 H         -0.3612958625        0.5990093916       -0.8270647704
 H          4.5534603707        1.1989694817        5.1030183629
 H          4.6522241534       -0.1394550699        3.9202821388
 H          3.0823903325        0.2881165476        4.6077079222
  42
    -4.287922 !GC
 C          0.0000000000        0.0000000000        0.0000000000
 C          1.5296334615        0.0000000000        0.0000000000
 C          2.0612333998        1.4445492573        0.0000000000
 C          1.7391812822        2.1580420811        1.3113902628
 N          2.2688732075        1.4272553814        2.4408223428
 C          1.8469393611        0.0443504932        2.5317965783
 C          2.0496562044       -0.7586967807        1.2414217250
 S          3.7912629962        1.8230609761        2.9640973372
 O          4.8629940024        1.6699730800        1.9856510630
 O          3.6368494015        3.1377897200        3.5377888832
 C          4.0615801272        0.6536827266        4.2935412492
 N          2.0212878505       -0.6696596454       -1.2070955450
 C          1.2478891315       -1.1846484841       -2.2083111873
 N          1.9074636398       -1.7643168830       -3.1617278984
 C          3.2253656242       -1.6483851703       -2.7992506555
 C          3.3191519244       -0.9674039502       -1.5588672511
 C          4.6071095457       -0.7618258584       -1.0375520447
 C          5.2442588042       -0.1695040024        0.0885856037
 C          6.5874367105       -0.3509359929       -0.0685550313
 N          6.8390273583       -1.0213588170       -1.2260318304
 C          5.6590271769       -1.2882813417       -1.8434358872
 N          5.5667837847       -1.9363889238       -3.0072897752
 C          4.3524480316       -2.1185005451       -3.4762323388
 H          3.1467498954        1.4393040192       -0.1247500976
 H          1.6317381661        1.9964844865       -0.8373803124
 H          2.2259995106        3.1340583722        1.3307873440
 H          0.6635981428        2.2831272758        1.4487524338
 H          2.4186720481       -0.4253187817        3.3293700426
 H          0.7910278199        0.0479363753        2.8149663078
 H          1.5248006562       -1.7105773725        1.3331536267
 H          3.1087929292       -0.9695506817        1.1190865582
 H          0.1810143719       -1.1174338769       -2.2213940402
 H          4.8028161933        0.3330453823        0.9262804584
 H          7.3806794214       -0.0387612182        0.5806675806
 H          4.2624884320       -2.6399730110       -4.4167922253
 H          7.7417057524       -1.2845569240       -1.5840127658
 H         -0.3832373970        0.4226306647        0.9259373967
 H         -0.3873133591        0.5633012883       -0.8436275003
 H         -0.3624529101       -1.0143691484       -0.1206791219
 H          4.5540385563        1.1797568974        5.0965006711
 H          4.6787202041       -0.1415464435        3.8962811200
 H          3.0982525327        0.2541792981        4.5807435287
  42
    -4.281771 !GC
 C          0.0000000000        0.0000000000        0.0000000000
 C          1.5297350249        0.0000000000        0.0000000000
 C          2.0503934912        1.4475885884        0.0000000000
 C          1.8000269176        2.1516845885        1.3373864048
 N          2.2764126111        1.3786528717        2.4636331889
 C          1.7911658713        0.0172942985        2.5238450395
 C          2.0581666056       -0.7555768174        1.2323512884
 S          3.8123707083        1.6742695815        3.0095461445
 O          4.8068511048        1.6908152317        1.9419289165
 O          3.7504328631        2.8559820396        3.8350457558
 C          4.1137840958        0.2712249661        4.0809560739
 N          2.0225918939       -0.6727611416       -1.2051013245
 C          1.2499334784       -1.2176972519       -2.1906971481
 N          1.9124004745       -1.7646217994       -3.1613368158
 C          3.2321115627       -1.5880763857       -2.8304375631
 C          3.3246718115       -0.8964939726       -1.5948083090
 C          4.6131916158       -0.6279475192       -1.1045113480
 C          5.2479001703       -0.0051088739        0.0064383493
 C          6.5941122566       -0.1209518312       -0.1836819125
 N          6.8496836438       -0.7795885520       -1.3469519524
 C          5.6695714570       -1.1031985610       -1.9361859904
 N          5.5806110745       -1.7570404953       -3.0973233304
 C          4.3655466062       -1.9950048218       -3.5386707098
 H          3.1231793835        1.4453857135       -0.1915884768
 H          1.5659788765        2.0070136772       -0.8016919843
 H          2.3396503057        3.0959976498        1.3292315854
 H          0.7374886151        2.3458886122        1.4922612358
 H          2.3106069936       -0.4496803206        3.3620814699
 H          0.7199882519        0.0466204620        2.7419036669
 H          1.5817142485       -1.7350541048        1.2942240325
 H          3.1325655137       -0.9131029966        1.1387239286
 H          0.1809165982       -1.2023994731       -2.1752652334
 H          4.8032798250        0.4803760510        0.8522304383
 H          7.3870401566        0.2301478813        0.4457262715
 H          4.2778889611       -2.5220541829       -4.4763407815
 H          7.7553577002       -0.9989666411       -1.7262975966
 H         -0.3955791830        0.4766935688        0.8925304442
 H         -0.4036907584        0.4775160381       -0.8852799033
 H         -0.3330050461       -1.0349150226       -0.0037639243
 H          4.8639067037       -0.3642954290        3.6325955841
 H          3.1618997675       -0.2324311745        4.1700072238
 H          4.4481380787        0.6510397474        5.0369291827
  42
    -4.274766 !GC
 C          0.0000000000        0.0000000000        0.0000000000
 C          1.5296086069        0.0000000000        0.0000000000
 C          2.0598743017        1.4452320127        0.0000000000
 C          1.7369077984        2.1587885978        1.3111994490
 N          2.2654711776        1.4282761813        2.4413234176
 C          1.8451502880        0.0448708743        2.5313655726
 C          2.0513921820       -0.7575418572        1.2413690006
 S          3.7858125871        1.8268243151        2.9682508233
 O          4.8601780375        1.6782013772        1.9918199639
 O          3.6265942137        3.1404763236        3.5433764676
 C          4.0559811965        0.6567303113        4.2970933205
 N          2.0213405581       -0.6688937781       -1.2075535944
 C          1.2479447480       -1.1926824321       -2.2041744493
 N          1.9073196236       -1.7829136041       -3.1511536958
 C          3.2250920790       -1.6649948036       -2.7891323108
 C          3.3188836869       -0.9708274219       -1.5569998938
 C          4.6076108152       -0.7533659674       -1.0425652215
 C          5.2465768361       -0.1365466091        0.0692566713
 C          6.5897322486       -0.3184868068       -0.0877569900
 N          6.8394395443       -1.0130487507       -1.2312517304
 C          5.6584044377       -1.2940635961       -1.8404942547
 N          5.5646407455       -1.9624782870       -2.9929149397
 C          4.3497140789       -2.1504437179       -3.4582867905
 H          3.1454132748        1.4418375834       -0.1242673613
 H          1.6298824157        1.9963157586       -0.8376883086
 H          2.2243470087        3.1344501421        1.3306911136
 H          0.6613160505        2.2850628725        1.4479009441
 H          2.4157472544       -0.4241860752        3.3300936273
 H          0.7885719346        0.0471569566        2.8119690337
 H          1.5296977051       -1.7111852589        1.3335398261
 H          3.1114620348       -0.9643436193        1.1192094007
 H          0.1811850473       -1.1237526844       -2.2190013054
 H          4.8063914597        0.3833893681        0.8968169924
 H          7.3840633368        0.0077901639        0.5531698463
 H          4.2586529018       -2.6864815738       -4.3905517619
 H          7.7417406103       -1.2810447786       -1.5868567429
 H         -0.3847653548       -1.0142326844       -0.0647184772
 H         -0.3835575720        0.4412580841        0.9151708132
 H         -0.3644267399        0.5876564559       -0.8358687820
 H          4.5455702294        1.1940548362        5.0986258748
 H          4.7068612018       -0.1173803029        3.9167564617
 H          3.0942833607        0.2795654739        4.6116247288
  42
    -4.274454 !GC
 C          0.0000000000        0.0000000000        0.0000000000
 C          1.5298128691        0.0000000000        0.0000000000
 C          2.0469196942        1.4490415449        0.0000000000
 C          1.8417028830        2.1374955429        1.3546223686
 N          2.2606724437        1.3439357231        2.4917722006
 C          1.7323589412       -0.0011795385        2.5310033340
 C          2.0598653319       -0.7527289811        1.2423500227
 S          3.7806625306        1.5879999969        3.1075531030
 O          3.6200937065        1.4051593125        4.5296563832
 O          4.8559472755        0.8294918276        2.4768954914
 C          4.0524698142        3.3289831336        2.7901999839
 N          2.0214298647       -0.6808400101       -1.2008886077
 C          1.2488084892       -1.2696674120       -2.1610057782
 N          1.9078923289       -1.7680835523       -3.1596562950
 C          3.2245772979       -1.5050412783       -2.8790082565
 C          3.3177099384       -0.8072614556       -1.6487813792
 C          4.6048080488       -0.4591838119       -1.2074041157
 C          5.2417761128        0.1884801558       -0.1121731088
 C          6.5833029799        0.1711286386       -0.3606681763
 N          6.8340083978       -0.4489773961       -1.5460258010
 C          5.6549934549       -0.8472727118       -2.0904868353
 N          5.5619068039       -1.4923883904       -3.2562030173
 C          4.3484919735       -1.8117279941       -3.6481286698
 H          3.1065347585        1.4556289439       -0.2415364635
 H          1.5227168786        2.0203367642       -0.7674202959
 H          2.4142166369        3.0624738908        1.3669249192
 H          0.7857762224        2.3791738529        1.5017403255
 H          2.2189056278       -0.4899069589        3.3761518757
 H          0.6562923676        0.0493749473        2.7068625011
 H          1.6342842066       -1.7566272045        1.2795886792
 H          3.1460596583       -0.8527656922        1.1760470340
 H          0.1827188864       -1.3264517234       -2.1053490163
 H          4.8016718526        0.6232169520        0.7633561868
 H          7.3753145026        0.5675553961        0.2425270578
 H          4.2575966162       -2.3347589480       -4.5877817242
 H          7.7357783713       -0.5979662567       -1.9666711906
 H         -0.3871311178       -1.0133700944        0.0459638836
 H         -0.3831740034        0.5731123073        0.8410989311
 H         -0.3633339869        0.4215476247       -0.9300464426
 H          4.6746912213        3.4092790212        1.9125522650
 H          4.5020610231        3.7515585857        3.6770645789
 H          3.0831777271        3.7838782185        2.6261031697
  42
    -4.263355 !GC
 C          0.0000000000        0.0000000000        0.0000000000
 C          1.5298032805        0.0000000000        0.0000000000
 C          2.0576931956        1.4463307520        0.0000000000
 C          1.7881885823        2.1413345991        1.3345642874
 N          2.2734360600        1.3769315554        2.4624011950
 C          1.7982719861        0.0124861458        2.5316539464
 C          2.0482617406       -0.7580584803        1.2308960605
 S          3.8057487995        1.6604488843        3.0228283460
 O          3.7250566055        1.7485981739        4.4607995188
 O          4.7926467401        0.7253625425        2.4934607028
 C          4.1446546826        3.3026788473        2.3949482980
 N          2.0230859028       -0.6744072399       -1.2041218822
 C          1.2508976915       -1.2223210786       -2.1884451691
 N          1.9138928261       -1.7635629187       -3.1619287098
 C          3.2334293833       -1.5808237761       -2.8339278203
 C          3.3253296211       -0.8933939063       -1.5959972738
 C          4.6136205046       -0.6213734221       -1.1071613330
 C          5.2472811159       -0.0036893067        0.0071473722
 C          6.5936239299       -0.1079978454       -0.1883681233
 N          6.8501379453       -0.7533182122       -1.3589355794
 C          5.6705260057       -1.0819514886       -1.9463843060
 N          5.5823198178       -1.7277013842       -3.1122336350
 C          4.3672908710       -1.9746857445       -3.5488857714
 H          3.1325110902        1.4488655357       -0.1803557060
 H          1.5833726731        2.0119344600       -0.8033563438
 H          2.3064411440        3.1004814368        1.3776999046
 H          0.7165539413        2.3097862161        1.4718510821
 H          2.3396969290       -0.4885304821        3.3308714177
 H          0.7359361711        0.0407610106        2.7794340651
 H          1.5619861737       -1.7331411544        1.2873836076
 H          3.1206735745       -0.9222180129        1.1287064784
 H          0.1818857335       -1.2118284000       -2.1709690809
 H          4.8013845605        0.4632285280        0.8626655716
 H          7.3862391615        0.2421082846        0.4419415927
 H          4.2797385815       -2.4950236419       -4.4903518415
 H          7.7562329736       -0.9621249881       -1.7434952282
 H         -0.3556938782       -1.0287912091       -0.0544555330
 H         -0.4036897114        0.4673109852        0.8909709066
 H         -0.3733381678        0.5293132577       -0.8689540245
 H          3.2362024320        3.7269497550        1.9924953095
 H          4.9091605055        3.2063888780        1.6378124853
 H          4.5005165948        3.8733135842        3.2420199356
  42
    -4.254433 !GC
 C          0.0000000000        0.0000000000        0.0000000000
 C          1.5297432257        0.0000000000        0.0000000000
 C          2.0470908026        1.4492195188        0.0000000000
 C          1.8474723269        2.1364087808        1.3560530692
 N          2.2704837230        1.3413105524        2.4906728336
 C          1.7377517540       -0.0021051755        2.5307728128
 C          2.0597996758       -0.7542350660        1.2411995734
 S          3.7951510579        1.5793213113        3.0964759031
 O          3.6426673701        1.3948582447        4.5191674213
 O          4.8629866749        0.8158448420        2.4592227427
 C          4.0725382645        3.3196532893        2.7792276572
 N          2.0222041290       -0.6790432415       -1.2015490500
 C          1.2494644660       -1.2686912294       -2.1612150306
 N          1.9093229822       -1.7780175633       -3.1537980358
 C          3.2265849116       -1.5223484448       -2.8691656993
 C          3.3196364619       -0.8175579020       -1.6422333944
 C          4.6066082350       -0.4707008340       -1.1995160453
 C          5.2423038628        0.1910993354       -0.1119908988
 C          6.5848868611        0.1622117262       -0.3539818335
 N          6.8372339775       -0.4789108117       -1.5277416308
 C          5.6585064563       -0.8783434678       -2.0716238573
 N          5.5670822415       -1.5374761097       -3.2295738762
 C          4.3532562070       -1.8496833059       -3.6259722173
 H          3.1056231176        1.4553238447       -0.2462947048
 H          1.5197506024        2.0212149871       -0.7647798256
 H          2.4198001314        3.0615205580        1.3670756379
 H          0.7921432554        2.3780671599        1.5077395162
 H          2.2237004588       -0.4928334313        3.3751261414
 H          0.6622003209        0.0529201046        2.7085599107
 H          1.6303481827       -1.7564161988        1.2791905358
 H          3.1453971617       -0.8584523853        1.1725467736
 H          0.1828628902       -1.3196828599       -2.1085831604
 H          4.8004413684        0.6436628725        0.7534918358
 H          7.3768859360        0.5643399905        0.2454326488
 H          4.2638321802       -2.3826132503       -4.5602019959
 H          7.7398854812       -0.6404864134       -1.9415509487
 H         -0.3852833701       -1.0122198539        0.0878050640
 H         -0.3871183774        0.5742507523        0.8362676565
 H         -0.3609797849        0.4544647352       -0.9165799805
 H          4.6907093492        3.3858879778        1.8931166405
 H          4.5653239220        3.7356189235        3.6446258267
 H          3.1113381898        3.7756673333        2.5827383615
  42
    -4.200021 !GC
 C          0.0000000000        0.0000000000        0.0000000000
 C          1.5297543282        0.0000000000        0.0000000000
 C          2.0561756171        1.4464079760        0.0000000000
 C          1.7828478417        2.1445552327        1.3331370703
 N          2.2545968996        1.3839779836        2.4703933408
 C          1.7856014822        0.0159541139        2.5327029678
 C          2.0531678280       -0.7537674626        1.2364610107
 S          3.7550962071        1.7029204798        3.1002801179
 O          3.6379543526        1.5865642152        4.5343216159
 O          4.8213373417        0.9254083443        2.4797575528
 C          3.9827504454        3.4339666840        2.7049580269
 N          2.0208681470       -0.6776035778       -1.2029302081
 C          1.2458812706       -1.2303766840       -2.1824228014
 N          1.9059466683       -1.7832538394       -3.1511064396
 C          3.2262409132       -1.6034704959       -2.8255108763
 C          3.3218828764       -0.9031484594       -1.5947950658
 C          4.6119842640       -0.6312364221       -1.1104875768
 C          5.2501691540        0.0013420434       -0.0071270535
 C          6.5958043145       -0.1178155054       -0.1991028504
 N          6.8479518251       -0.7907045843       -1.3548216078
 C          5.6660024351       -1.1165767166       -1.9394807406
 N          5.5742027944       -1.7772564007       -3.0966193898
 C          4.3578258638       -2.0146043019       -3.5346359223
 H          3.1308702349        1.4498844800       -0.1803153289
 H          1.5820769104        2.0109756826       -0.8044909166
 H          2.3122986141        3.0977992746        1.3723492505
 H          0.7112410466        2.3200074300        1.4617711381
 H          2.3146160908       -0.4802088203        3.3431710658
 H          0.7206412681        0.0405397087        2.7699817481
 H          1.5809385916       -1.7356987055        1.2923621163
 H          3.1287945325       -0.9011265939        1.1399615029
 H          0.1772291148       -1.2169153168       -2.1647575942
 H          4.8087812849        0.5140132533        0.8242259485
 H          7.3904441641        0.2425262183        0.4230752356
 H          4.2674193230       -2.5433932481       -4.4708459202
 H          7.7521938717       -1.0137720350       -1.7354954943
 H         -0.3849008983        0.4558024682        0.9082851685
 H         -0.4186965227        0.4866420815       -0.8784747285
 H         -0.3291971314       -1.0315035490        0.0030046207
 H          4.7239446435        3.4819534055        1.9186044548
 H          4.3148248867        3.9352525061        3.6013854105
 H          3.0396068648        3.8167629099        2.3394799954
  42
    -4.167614 !GC
 C          0.0000000000        0.0000000000        0.0000000000
 C          1.5296144105        0.0000000000        0.0000000000
 C          2.0575374991        1.4461962888        0.0000000000
 C          1.7890497709        2.1411347415        1.3348567442
 N          2.2718830251        1.3764602237        2.4637803249
 C          1.7964155203        0.0118013006        2.5312020386
 C          2.0492117883       -0.7578260387        1.2308696455
 S          3.7997512587        1.6689596204        3.0331674839
 O          3.7104475416        1.7478663334        4.4711705608
 O          4.7959990921        0.7442091526        2.5029429175
 C          4.1293297743        3.3169375530        2.4146421092
 N          2.0222196125       -0.6743099584       -1.2043320482
 C          1.2494812267       -1.2263467458       -2.1859198186
 N          1.9119135476       -1.7697964444       -3.1585542462
 C          3.2316310808       -1.5850764115       -2.8323198279
 C          3.3242867835       -0.8936899584       -1.5966381540
 C          4.6129230178       -0.6191466192       -1.1098735074
 C          5.2477057451        0.0026978954        0.0015366408
 C          6.5939451771       -0.1020001263       -0.1948390196
 N          6.8494383925       -0.7522428287       -1.3628282425
 C          5.6692525176       -1.0831954984       -1.9479426070
 N          5.5801776622       -1.7325170511       -3.1116671935
 C          4.3650166034       -1.9803013509       -3.5472164242
 H          3.1321854133        1.4488776209       -0.1815235787
 H          1.5822894880        2.0121785478       -0.8025099597
 H          2.3096176383        3.0991142982        1.3774919687
 H          0.7177728693        2.3118241384        1.4717992874
 H          2.3362702237       -0.4892021505        3.3315398416
 H          0.7335344838        0.0405498473        2.7764997948
 H          1.5654794878       -1.7340783680        1.2866523319
 H          3.1222459623       -0.9189636763        1.1292666881
 H          0.1804696012       -1.2160911035       -2.1675124371
 H          4.8030176681        0.4718552653        0.8564875349
 H          7.3868842053        0.2498315602        0.4341711955
 H          4.2772215989       -2.5048155942       -4.4863349981
 H          7.7549351558       -0.9640846899       -1.7468994377
 H         -0.3661163093        0.4909738351        0.9012302801
 H         -0.3737099960        0.5337008603       -0.8699543021
 H         -0.3926576185       -1.0065505100       -0.0271401037
 H          3.1904342863        3.6639606800        2.0077036523
 H          4.9000916184        3.2669718717        1.6591133423
 H          4.4443255970        3.9265395518        3.2506160826
  42
    -4.055691 !GC
 C          0.0000000000        0.0000000000        0.0000000000
 C          1.5297724961        0.0000000000        0.0000000000
 C          2.0574951701        1.4460079437        0.0000000000
 C          1.7793164506        2.1425849680        1.3318502068
 N          2.2579666126        1.3827230160        2.4666458611
 C          1.7928593076        0.0137280861        2.5321447323
 C          2.0500747012       -0.7565264751        1.2332480883
 S          3.7693803550        1.7112480677        3.0636419779
 O          3.6604869197        1.7297655830        4.5024942967
 O          4.8046834755        0.8446307973        2.5109255080
 C          4.0474488539        3.3925365180        2.5141614519
 N          2.0224439384       -0.6755497943       -1.2033951411
 C          1.2508637036       -1.2248987969       -2.1874025753
 N          1.9145153586       -1.7733168330       -3.1564774957
 C          3.2338932518       -1.5951200972       -2.8249647312
 C          3.3248845356       -0.9018850107       -1.5903226811
 C          4.6125547099       -0.6334691505       -1.0979174462
 C          5.2450802727       -0.0134606167        0.0157992147
 C          6.5917164533       -0.1278852681       -0.1727669182
 N          6.8492329971       -0.7809671356       -1.3387129989
 C          5.6702492544       -1.1054143587       -1.9297515577
 N          5.5830436067       -1.7571074019       -3.0923917835
 C          4.3685692476       -1.9991556332       -3.5331963198
 H          3.1333132015        1.4489263004       -0.1746535529
 H          1.5870382281        2.0105198221       -0.8064088691
 H          2.2975975144        3.1017632771        1.3744476262
 H          0.7067006339        2.3099843420        1.4622693789
 H          2.3358934514       -0.4830211060        3.3332380209
 H          0.7299568868        0.0357886491        2.7785563211
 H          1.5696855700       -1.7346181482        1.2898408140
 H          3.1238041257       -0.9137814539        1.1335302946
 H          0.1818391202       -1.2088286412       -2.1734473473
 H          4.7982972343        0.4615996564        0.8663078013
 H          7.3836886424        0.2200542550        0.4595694353
 H          4.2824958647       -2.5260306708       -4.4711675650
 H          7.7555215887       -0.9999420216       -1.7171502863
 H         -0.3958096848       -1.0109455497       -0.0426473411
 H         -0.3566617013        0.4915583768        0.9051254776
 H         -0.3806348431        0.5565447500       -0.8452577435
 H          4.7997811368        3.3623768512        1.7411860697
 H          4.3408196990        3.9697653290        3.3790606277
 H          3.1073251037        3.7699129651        2.1312967618
  42
    -4.031604 !GC
 C          0.0000000000        0.0000000000        0.0000000000
 C          1.5298652279        0.0000000000        0.0000000000
 C          2.0515239077        1.4473376146        0.0000000000
 C          1.7790639544        2.1650192092        1.3256546873
 N          2.2756841555        1.4289537118        2.4683292384
 C          1.8150604120        0.0613791823        2.5699682810
 C          2.0551800207       -0.7329916362        1.2858328454
 S          3.7912036329        1.8065673414        3.0224528338
 O          3.7141545887        1.8520401658        4.4632824340
 O          4.8394018850        0.9609149504        2.4631400829
 C          4.0051160326        3.4860032603        2.4398473738
 N          2.0220002478       -0.6753153717       -1.2035193058
 C          1.2492821468       -1.2110936286       -2.1941805315
 N          1.9113282698       -1.7590433556       -3.1643266976
 C          3.2306693307       -1.5923097521       -2.8286521707
 C          3.3236361514       -0.9052444244       -1.5898434385
 C          4.6122809780       -0.6437666601       -1.0962490253
 C          5.2467907979       -0.0244638886        0.0166071503
 C          6.5929442407       -0.1461101017       -0.1697504217
 N          6.8488044170       -0.8052393071       -1.3329032967
 C          5.6685627648       -1.1224712237       -1.9257737311
 N          5.5796963395       -1.7722438641       -3.0890987902
 C          4.3645097304       -2.0022554638       -3.5347058112
 H          3.1268133730        1.4447834682       -0.1776840758
 H          1.5771242984        1.9998282548       -0.8123999220
 H          2.2848215796        3.1283814409        1.3301849595
 H          0.7068178936        2.3239457159        1.4478610438
 H          2.3717988887       -0.4052523523        3.3836650212
 H          0.7550087174        0.0998618326        2.8376659156
 H          1.5758739601       -1.7094627834        1.3689304609
 H          3.1272034238       -0.8959052453        1.1759200658
 H          0.1807713216       -1.1889041046       -2.1842419048
 H          4.8015801470        0.4622226778        0.8617117203
 H          7.3853769747        0.2004711039        0.4628677226
 H          4.2777878527       -2.5240475626       -4.4754395613
 H          7.7542998621       -1.0303851521       -1.7091695120
 H         -0.4033153869       -1.0049053611       -0.0530588997
 H         -0.3788576465        0.5109959984        0.8810120432
 H         -0.3517611218        0.5398367147       -0.8747304764
 H          4.7432154698        3.4654587583        1.6529172100
 H          4.2972937630        4.0870454205        3.2888082244
 H          3.0468435320        3.8278336257        2.0692050027
  42
    -3.921520 !GC
 C          0.0000000000        0.0000000000        0.0000000000
 C          1.5298460507        0.0000000000        0.0000000000
 C          2.0515671364        1.4473679606        0.0000000000
 C          1.7807729547        2.1626239192        1.3272814824
 N          2.2761715349        1.4221974583        2.4675205224
 C          1.8151272380        0.0544884386        2.5636184874
 C          2.0564548759       -0.7347241172        1.2764469114
 S          3.7892996217        1.7997139578        3.0278635226
 O          3.7102799779        1.8299027916        4.4689957555
 O          4.8418330405        0.9643946486        2.4610261787
 C          3.9963062314        3.4862086933        2.4632825202
 N          2.0223517403       -0.6751865957       -1.2034740259
 C          1.2492266008       -1.2129718778       -2.1927626340
 N          1.9108586259       -1.7584153051       -3.1646082289
 C          3.2304069722       -1.5873793836       -2.8317870387
 C          3.3238994981       -0.9013410567       -1.5924258234
 C          4.6128376690       -0.6380268409       -1.1003994638
 C          5.2480570560       -0.0201983550        0.0128996808
 C          6.5941394064       -0.1386044820       -0.1760731390
 N          6.8493552912       -0.7935677733       -1.3416954598
 C          5.6687372700       -1.1125293650       -1.9327655123
 N          5.5793552992       -1.7598719982       -3.0973353380
 C          4.3639829141       -1.9925632207       -3.5408893924
 H          3.1265064748        1.4450557135       -0.1795301073
 H          1.5757679876        2.0009328182       -0.8108477025
 H          2.2888061542        3.1247739380        1.3341878183
 H          0.7090695302        2.3240518696        1.4505232540
 H          2.3710503728       -0.4158057507        3.3757781215
 H          0.7548378947        0.0920805193        2.8305323171
 H          1.5778412086       -1.7118377797        1.3554164405
 H          3.1286154106       -0.8965463347        1.1665472051
 H          0.1806754885       -1.1943738767       -2.1803620014
 H          4.8034103139        0.4633671321        0.8600857242
 H          7.3870254577        0.2081605032        0.4558789373
 H          4.2769720817       -2.5129543968       -4.4823701375
 H          7.7547410383       -1.0143509352       -1.7206869603
 H         -0.3967528083        0.4739324809        0.8907574616
 H         -0.3678867169        0.5070970546       -0.8908307892
 H         -0.3694179899       -1.0183388437       -0.0367374094
 H          4.7343036954        3.4763262855        1.6760077592
 H          4.2866248361        4.0794014335        3.3183824401
 H          3.0364305204        3.8281291734        2.0964832354
  42
    -3.893638 !GC
 C          0.0000000000        0.0000000000        0.0000000000
 C          1.5297510479        0.0000000000        0.0000000000
 C          2.0575429898        1.4460307443        0.0000000000
 C          1.7818679643        2.1427322141        1.3323927583
 N          2.2587245658        1.3822510473        2.4676296699
 C          1.7918811789        0.0136631796        2.5321543647
 C          2.0504322464       -0.7563052782        1.2335104199
 S          3.7681683115        1.7163542483        3.0670377987
 O          3.6527684903        1.7520331190        4.5050177743
 O          4.8041352910        0.8408565119        2.5296614280
 C          4.0515779667        3.3905051860        2.4980199918
 N          2.0217217619       -0.6756833640       -1.2036276980
 C          1.2492555461       -1.2283221038       -2.1850837681
 N          1.9120958159       -1.7775662106       -3.1542367148
 C          3.2317371939       -1.5965164066       -2.8254772445
 C          3.3238340618       -0.9007194498       -1.5923204893
 C          4.6121041631       -0.6290173144       -1.1031651117
 C          5.2460306991       -0.0055715209        0.0078557912
 C          6.5924449714       -0.1172781808       -0.1837414624
 N          6.8485846609       -0.7723734470       -1.3488206509
 C          5.6688970157       -1.1005310445       -1.9363820903
 N          5.5805194804       -1.7545679727       -3.0976057705
 C          4.3655732491       -1.9994161861       -3.5355134552
 H          3.1330278304        1.4487503634       -0.1766875156
 H          1.5858047043        2.0111061055       -0.8052816058
 H          2.3025886065        3.1006203230        1.3747869103
 H          0.7097894794        2.3130160788        1.4635297458
 H          2.3330678562       -0.4839115716        3.3338543957
 H          0.7285786922        0.0369398681        2.7764214708
 H          1.5713697390       -1.7349637804        1.2899436641
 H          3.1243572723       -0.9122112619        1.1339849955
 H          0.1802362365       -1.2137593717       -2.1692881156
 H          4.8004878688        0.4699932765        0.8588139804
 H          7.3850459763        0.2338262655        0.4460954327
 H          4.2783212594       -2.5281889718       -4.4723170307
 H          7.7543557006       -0.9899032437       -1.7290838382
 H         -0.3665869946        0.4880007364        0.9026366176
 H         -0.3740261363        0.5361714658       -0.8684244945
 H         -0.3922627835       -1.0066254916       -0.0301978619
 H          4.8220444096        3.3525085485        1.7434319457
 H          4.3215001302        3.9821140137        3.3608503574
 H          3.1191879100        3.7573773006        2.0869870829
  42
    -3.851231 !GC
 C          0.0000000000        0.0000000000        0.0000000000
 C          1.5296650029        0.0000000000        0.0000000000
 C          2.0575268697        1.4463909506        0.0000000000
 C          1.7892843117        2.1410501588        1.3351932301
 N          2.2742033497        1.3757023243        2.4624276053
 C          1.7978898231        0.0117018274        2.5312559691
 C          2.0486652277       -0.7582805687        1.2303868348
 S          3.8074213611        1.6528110117        3.0233901855
 O          3.7281710694        1.7314363340        4.4620648180
 O          4.7927443858        0.7206711799        2.4856503116
 C          4.1470012051        3.2991701825        2.4064404720
 N          2.0225215735       -0.6741572441       -1.2044270836
 C          1.2500026692       -1.2231799467       -2.1878046517
 N          1.9126477400       -1.7654822764       -3.1609258655
 C          3.2322579417       -1.5820846341       -2.8337883357
 C          3.3246980630       -0.8929127685       -1.5968762977
 C          4.6132226926       -0.6190013487       -1.1095668138
 C          5.2475841835        0.0016689465        0.0026512366
 C          6.5938030172       -0.1017838399       -0.1940282972
 N          6.8497670475       -0.7500172579       -1.3630789082
 C          5.6697433999       -1.0801234241       -1.9490054108
 N          5.5809341904       -1.7273269693       -3.1139560069
 C          4.3657340419       -1.9757594977       -3.5493280659
 H          3.1320641895        1.4490235283       -0.1821830990
 H          1.5819532806        2.0122720042       -0.8023774681
 H          2.3086028943        3.0995940619        1.3782721092
 H          0.7179599200        2.3108446479        1.4730089778
 H          2.3380438681       -0.4896371642        3.3311254819
 H          0.7353537304        0.0406956789        2.7779708292
 H          1.5631361338       -1.7336967692        1.2860940858
 H          3.1211859002       -0.9216597032        1.1280297705
 H          0.1810101868       -1.2122082912       -2.1701272583
 H          4.8024487037        0.4705090853        0.8574762562
 H          7.3866433910        0.2510525864        0.4344826733
 H          4.2779746385       -2.4990722178       -4.4891227820
 H          7.7555037818       -0.9595921561       -1.7481459655
 H         -0.3552639422       -1.0294982619       -0.0459112026
 H         -0.4034271189        0.4746696497        0.8872519728
 H         -0.3733539104        0.5221678866       -0.8733671498
 H          4.8920269825        3.2011316059        1.6284863519
 H          4.5068137335        3.8895772577        3.2343860942
 H          3.2316614331        3.6865213330        1.9805937977
  42
    -3.751928 !GC
 C          0.0000000000        0.0000000000        0.0000000000
 C          1.5296467089        0.0000000000        0.0000000000
 C          2.0573584250        1.4463098270        0.0000000000
 C          1.7878864235        2.1409525846        1.3347068378
 N          2.2735129642        1.3759358744        2.4618335595
 C          1.7980345294        0.0116485000        2.5310539709
 C          2.0485098583       -0.7583896563        1.2302173940
 S          3.8071571861        1.6526530927        3.0220189324
 O          3.7291766045        1.7296076836        4.4608078514
 O          4.7923692070        0.7218593647        2.4818661149
 C          4.1461122772        3.2991496450        2.4058668621
 N          2.0225753803       -0.6737653301       -1.2045818673
 C          1.2500128348       -1.2217961892       -2.1886136337
 N          1.9125510993       -1.7661910445       -3.1606422798
 C          3.2322285084       -1.5861807715       -2.8315725860
 C          3.3247092503       -0.8966243938       -1.5948612261
 C          4.6132281931       -0.6276849426       -1.1047948151
 C          5.2477380267       -0.0094386229        0.0087708187
 C          6.5940377358       -0.1210189236       -0.1835375513
 N          6.8496997413       -0.7705357082       -1.3518967758
 C          5.6696698988       -1.0954226347       -1.9406652816
 N          5.5808726259       -1.7433561015       -3.1052620496
 C          4.3657593728       -1.9857777190       -3.5440267550
 H          3.1322208995        1.4493116794       -0.1801315144
 H          1.5826950140        2.0118416478       -0.8032023594
 H          2.3065813475        3.0998784086        1.3774856294
 H          0.7164064383        2.3097658391        1.4723681700
 H          2.3393273099       -0.4891134811        3.3306351696
 H          0.7355880030        0.0401366892        2.7784775069
 H          1.5627927775       -1.7338238831        1.2859396358
 H          3.1211365656       -0.9215052077        1.1281107928
 H          0.1810007028       -1.2086917411       -2.1722688061
 H          4.8027134498        0.4628128598        0.8617372176
 H          7.3870413237        0.2265705037        0.4477251767
 H          4.2781479045       -2.5088273885       -4.4840045879
 H          7.7553228363       -0.9861223239       -1.7338906145
 H         -0.4145891300        0.4566039245        0.8909809058
 H         -0.3671464917        0.5153104548       -0.8872074959
 H         -0.3508662004       -1.0248480081       -0.0500291346
 H          4.9049643673        3.2127131235        1.6436198195
 H          4.4490476698        3.9037589318        3.2484442431
 H          3.2223119639        3.6895997714        1.9974924385
  42
    -3.146645 !GC
 C          0.0000000000        0.0000000000        0.0000000000
 C          1.5298745641        0.0000000000        0.0000000000
 C          2.0494774530        1.4502584074        0.0000000000
 C          1.7761919610        2.1574184083        1.3323851043
 N          2.2760736683        1.4022451778        2.4532975869
 C          1.8496842662        0.0288400522        2.5484545257
 C          2.1118051409       -0.7440939136        1.2524604890
 S          3.6126975582        1.8465277150        3.2707414524
 O          4.1730833249        2.9734076328        2.5626438873
 O          3.2907019273        2.0376834629        4.6728140056
 C          4.8001885912        0.5002266685        3.1546876280
 N          2.0205301726       -0.6718466199       -1.2065595212
 C          1.2447099353       -1.2097112251       -2.1945494067
 N          1.9044403550       -1.7569813816       -3.1665110471
 C          3.2245725484       -1.5929662309       -2.8333812254
 C          3.3212789946       -0.9070644317       -1.5940863302
 C          4.6119634524       -0.6494905413       -1.1035481582
 C          5.2508772126       -0.0337375341        0.0086921300
 C          6.5962588509       -0.1597791887       -0.1804049968
 N          6.8475234437       -0.8168379576       -1.3455578350
 C          5.6652343539       -1.1303506358       -1.9359265764
 N          5.5720494496       -1.7768085746       -3.1004415096
 C          4.3555423932       -2.0026430789       -3.5440118424
 H          3.1237303248        1.4507924627       -0.1837176356
 H          1.5718475389        2.0059393073       -0.8083687379
 H          2.2943117265        3.1135477587        1.3258024179
 H          0.7046786702        2.3086817545        1.4779076039
 H          2.4272670119       -0.4403567653        3.3435574869
 H          0.7868630218        0.0401693266        2.8059016497
 H          1.6809843069       -1.7433505458        1.3332916984
 H          3.1884866502       -0.8565581713        1.1241911185
 H          0.1762599544       -1.1903338414       -2.1787480470
 H          4.8096718920        0.4527941998        0.8560295581
 H          7.3910787421        0.1835744918        0.4511125180
 H          4.2667485967       -2.5229304015       -4.4851798474
 H          7.7517234054       -1.0439816781       -1.7235861141
 H         -0.3860267106        0.5400414522       -0.8603737391
 H         -0.3864835072       -1.0155642217       -0.0053332795
 H         -0.3629313612        0.4912128395        0.8957993539
 H          4.5938152151       -0.2132583236        3.9375589933
 H          5.7809480792        0.9475930568        3.2291756578
 H          4.6831081487        0.0493115420        2.1782343510
  42
    -3.120690 !GC
 C          0.0000000000        0.0000000000        0.0000000000
 C          1.5297887715        0.0000000000        0.0000000000
 C          2.0496500860        1.4502076084        0.0000000000
 C          1.7778874308        2.1570945357        1.3328762365
 N          2.2803765128        1.4030341053        2.4535806381
 C          1.8538075351        0.0299446916        2.5518457845
 C          2.1124794098       -0.7446113867        1.2561612392
 S          3.6217749497        1.8483479077        3.2629413039
 O          4.1735582765        2.9796259234        2.5550999465
 O          3.3095827492        2.0332513253        4.6680666975
 C          4.8128002572        0.5064302122        3.1320572406
 N          2.0211796381       -0.6723217861       -1.2059648235
 C          1.2460726944       -1.2102610187       -2.1944703115
 N          1.9066059618       -1.7532822061       -3.1682475855
 C          3.2265156942       -1.5864510864       -2.8357921302
 C          3.3222932179       -0.9032339123       -1.5949141305
 C          4.6125681726       -0.6434579004       -1.1044779769
 C          5.2503767811       -0.0295117771        0.0094052162
 C          6.5960579238       -0.1511676093       -0.1811089149
 N          6.8484223377       -0.8037426676       -1.3486328713
 C          5.6665675397       -1.1189943236       -1.9390281524
 N          5.5742774522       -1.7626978129       -3.1051252057
 C          4.3581039431       -1.9915325922       -3.5480241431
 H          3.1238000131        1.4506213589       -0.1845649017
 H          1.5715121587        2.0061775240       -0.8078797606
 H          2.2946488917        3.1138973141        1.3251779924
 H          0.7063429013        2.3069536350        1.4801263188
 H          2.4331985452       -0.4386193688        3.3460517243
 H          0.7917608711        0.0419802985        2.8125070084
 H          1.6789662977       -1.7425867540        1.3382304396
 H          3.1886521324       -0.8599003359        1.1264404852
 H          0.1775952521       -1.1943701068       -2.1773709612
 H          4.8082749182        0.4532387433        0.8584936963
 H          7.3903567433        0.1923767135        0.4509294742
 H          4.2700807059       -2.5083681535       -4.4912208878
 H          7.7530839222       -1.0273924270       -1.7277157241
 H         -0.3860626159        0.5392753193       -0.8608460137
 H         -0.3865614739       -1.0155699723       -0.0044838951
 H         -0.3628153117        0.4920272257        0.8954201106
 H          4.6986258889        0.0727638683        2.1501893021
 H          4.5696269742       -0.1993448556        3.9131993775
 H          5.8086165258        0.9072345652        3.2657335579
  42
    -2.942952 !GC
 C          0.0000000000        0.0000000000        0.0000000000
 C          1.5297259410        0.0000000000        0.0000000000
 C          2.0506776081        1.4497347722        0.0000000000
 C          1.7817526280        2.1550003282        1.3342676004
 N          2.2840485868        1.3980819592        2.4532299258
 C          1.8546644455        0.0257514345        2.5502568734
 C          2.1115270652       -0.7483289378        1.2540176976
 S          3.6281006605        1.8387669206        3.2607705255
 O          4.1827852917        2.9682654312        2.5523541875
 O          3.3184186852        2.0245676873        4.6663480733
 C          4.8141990433        0.4925959540        3.1282149365
 N          2.0214845422       -0.6723042698       -1.2058522860
 C          1.2461566066       -1.2123235364       -2.1930829986
 N          1.9065561325       -1.7517460591       -3.1689703135
 C          3.2266390548       -1.5794104779       -2.8397764853
 C          3.3225218874       -0.8980137487       -1.5978572435
 C          4.6128246027       -0.6349415557       -1.1093742612
 C          5.2506296416       -0.0226817063        0.0054542041
 C          6.5963724922       -0.1382065298       -0.1884713539
 N          6.8486684754       -0.7852653006       -1.3590193535
 C          5.6668036466       -1.1036383827       -1.9477363353
 N          5.5744773717       -1.7442163479       -3.1155971436
 C          4.3581599103       -1.9776783625       -3.5557657731
 H          3.1244775541        1.4497885436       -0.1866187660
 H          1.5713026379        2.0068614983       -0.8063599085
 H          2.3004675326        3.1107438320        1.3274474253
 H          0.7106758677        2.3067724402        1.4830138564
 H          2.4330872406       -0.4446529486        3.3440438888
 H          0.7926549706        0.0398140675        2.8109882483
 H          1.6760605378       -1.7455730608        1.3353113396
 H          3.1874232388       -0.8656960532        1.1242418937
 H          0.1776785372       -1.2012118442       -2.1731875601
 H          4.8083814020        0.4542148047        0.8578243177
 H          7.3908019570        0.2060641819        0.4430013476
 H          4.2702118322       -2.4929106639       -4.4998232033
 H          7.7532639015       -1.0038905122       -1.7410557567
 H         -0.3862634179        0.5410470281       -0.8596762447
 H         -0.3864117988       -1.0157073318       -0.0064499581
 H         -0.3627325640        0.4902070551        0.8964507524
 H          5.8092027941        0.8945424817        3.2437718047
 H          4.6607301756        0.0786080370        2.1417255171
 H          4.5802616804       -0.2552184994        3.8738255969
  42
    -2.706441 !GC
 C          0.0000000000        0.0000000000        0.0000000000
 C          1.5284476302        0.0000000000        0.0000000000
 C          2.0666265842        1.4313115319        0.0000000000
 C          2.7838709873        1.7256367398        1.3164629954
 N          1.9078494895        1.4792027945        2.4391111637
 C          1.6544411421        0.0880867529        2.6890368983
 C          1.9236390217       -0.7131964854        1.4165110104
 S          1.8816191400        2.5307765810        3.6907218816
 O          2.5676513280        3.7061015962        3.2031543989
 O          0.5104114475        2.7098267774        4.1277433720
 C          2.8166662461        1.8495793381        5.0701058226
 N          2.0336747077       -0.6646916902       -1.2014011444
 C          1.2859316504       -1.3493881577       -2.1170192481
 N          1.9711223532       -1.8992210652       -3.0713501054
 C          3.2750325194       -1.5599450618       -2.8143074474
 C          3.3400240846       -0.7794776947       -1.6311385964
 C          4.6149597927       -0.3590952866       -1.2130028883
 C          5.2328571888        0.3830533127       -0.1661384667
 C          6.5752099654        0.3864142054       -0.4144039480
 N          6.8448766029       -0.3098665333       -1.5508743275
 C          5.6795722841       -0.7777674423       -2.0666184812
 N          5.6108948077       -1.5039607939       -3.1847780268
 C          4.4123670745       -1.8928089620       -3.5545928214
 H          2.7428672495        1.5951262668       -0.8322897993
 H          1.2191694905        2.1099301130       -0.1078498862
 H          3.6941930945        1.1120387689        1.3873993821
 H          3.0599177240        2.7811871865        1.3537384600
 H          2.3053898371       -0.2754576051        3.4916083051
 H          0.6158720127        0.0151020537        3.0071309366
 H          1.4394522365       -1.6849444927        1.5231759303
 H          2.9983418512       -0.8712189365        1.3228643414
 H          0.2219319216       -1.4344274265       -2.0587104341
 H          4.7882293263        0.8776224368        0.6766191702
 H          7.3540924646        0.8475333835        0.1593586595
 H          4.3409313068       -2.4815344661       -4.4559273079
 H          7.7504241627       -0.4577426318       -1.9638177373
 H         -0.3807488084        0.4503196137       -0.9123887936
 H         -0.3854756198       -1.0115170296        0.0902193663
 H         -0.3730999171        0.5747915489        0.8377668308
 H          2.7940683415        2.6028968968        5.8449088244
 H          3.8303040607        1.6680269898        4.7412970446
 H          2.3245086052        0.9442252869        5.3951534497
  42
    -2.588010 !GC
 C          0.0000000000        0.0000000000        0.0000000000
 C          1.5298389854        0.0000000000        0.0000000000
 C          2.0499838228        1.4500657306        0.0000000000
 C          1.7780374712        2.1568597741        1.3328526205
 N          2.2783317393        1.4008101202        2.4530415877
 C          1.8512211021        0.0277162788        2.5480727709
 C          2.1119559382       -0.7445696798        1.2513855823
 S          3.6159163219        1.8443382276        3.2692997366
 O          4.1742087422        2.9732762537        2.5628370234
 O          3.2960297593        2.0320343425        4.6723375539
 C          4.8044467178        0.4994163646        3.1480610059
 N          2.0208871347       -0.6717617929       -1.2064139486
 C          1.2452022009       -1.2099822557       -2.1943476869
 N          1.9052004823       -1.7538241600       -3.1680464795
 C          3.2253065138       -1.5871980279       -2.8361661191
 C          3.3217544188       -0.9035051146       -1.5956238342
 C          4.6123562563       -0.6442335151       -1.1057689161
 C          5.2508309976       -0.0300571634        0.0076120637
 C          6.5963838623       -0.1528396630       -0.1829985482
 N          6.8480653849       -0.8062809848       -1.3501547526
 C          5.6659050239       -1.1208705108       -1.9402989552
 N          5.5730001698       -1.7652586558       -3.1059657922
 C          4.3565165541       -1.9933835691       -3.5485049490
 H          3.1240844774        1.4502800520       -0.1846478414
 H          1.5719168014        2.0061900367       -0.8078052321
 H          2.2967432096        3.1126545440        1.3262050895
 H          0.7066538388        2.3086033630        1.4792493710
 H          2.4288777560       -0.4421454291        3.3427590177
 H          0.7885757740        0.0395838924        2.8062700327
 H          1.6799699762       -1.7433974597        1.3315584545
 H          3.1884255457       -0.8579352006        1.1226936099
 H          0.1767031188       -1.1929846151       -2.1773785283
 H          4.8092219123        0.4536692028        0.8564404315
 H          7.3910541800        0.1906210560        0.4486061695
 H          4.2679623659       -2.5102120881       -4.4916287128
 H          7.7524185327       -1.0303326663       -1.7296027752
 H         -0.3965119016        0.4762586665        0.8898579387
 H         -0.3681536415        0.5071062073       -0.8908251314
 H         -0.3707825508       -1.0180490059       -0.0345626221
 H          4.6757859820        0.0462270606        2.1769708952
 H          4.5730568120       -0.1909565048        3.9463392827
 H          5.8019534330        0.9028557987        3.2591126352
  42
    -2.578864 !GC
 C          0.0000000000        0.0000000000        0.0000000000
 C          1.5297473891        0.0000000000        0.0000000000
 C          2.0506933266        1.4497861666        0.0000000000
 C          1.7814095091        2.1552337533        1.3341279814
 N          2.2827795481        1.3980792208        2.4532378748
 C          1.8531709241        0.0257478803        2.5493981515
 C          2.1111555282       -0.7482488284        1.2532382238
 S          3.6259114790        1.8378228396        3.2628088198
 O          4.1849379244        2.9639701712        2.5525312852
 O          3.3133301756        2.0280760346        4.6671252238
 C          4.8089859322        0.4884270261        3.1373023257
 N          2.0212697674       -0.6722566283       -1.2059696319
 C          1.2456341787       -1.2124538237       -2.1928920238
 N          1.9056910176       -1.7535291011       -3.1680497056
 C          3.2258163337       -1.5824883464       -2.8385189351
 C          3.3221961875       -0.8997698258       -1.5974131171
 C          4.6127919061       -0.6377324476       -1.1090333491
 C          5.2511985821       -0.0242458860        0.0047356109
 C          6.5968024581       -0.1423205218       -0.1884823498
 N          6.8485477573       -0.7920558590       -1.3577169018
 C          5.6663647838       -1.1092388732       -1.9464241000
 N          5.5734889509       -1.7515451222       -3.1132691378
 C          4.3569688466       -1.9834900544       -3.5536706887
 H          3.1245316111        1.4498100983       -0.1861972772
 H          1.5716411611        2.0068049553       -0.8066016989
 H          2.3005960430        3.1107721156        1.3274097432
 H          0.7103867851        2.3075970033        1.4824750706
 H          2.4307959411       -0.4448437240        3.3436684801
 H          0.7908827685        0.0398433773        2.8090537681
 H          1.6760482349       -1.7456047249        1.3343761343
 H          3.1871823019       -0.8652086088        1.1241453547
 H          0.1771224066       -1.2001015746       -2.1734560168
 H          4.8094858353        0.4550744206        0.8559970998
 H          7.3914694809        0.2016903280        0.4428390419
 H          4.2682867950       -2.5007421222       -4.4966056543
 H          7.7530342490       -1.0132842102       -1.7387359193
 H         -0.3967279972        0.4764512374        0.8896874244
 H         -0.3682499761        0.5066046726       -0.8910743407
 H         -0.3702894355       -1.0182724368       -0.0341511867
 H          4.5981870178       -0.2313124487        3.9133527665
 H          5.7913798873        0.9312662047        3.2180919210
 H          4.6926917202        0.0468322595        2.1565269105
  42
    -2.541611 !GC
 C          0.0000000000        0.0000000000        0.0000000000
 C          1.5298251072        0.0000000000        0.0000000000
 C          2.0498084617        1.4501659990        0.0000000000
 C          1.7776266741        2.1569656054        1.3328631402
 N          2.2786325478        1.4017245747        2.4532691308
 C          1.8519871228        0.0286409702        2.5496633921
 C          2.1123737227       -0.7448432084        1.2536474194
 S          3.6143435209        1.8474861648        3.2710128990
 O          4.1688134983        2.9804298106        2.5679106595
 O          3.2935892929        2.0298496715        4.6745435242
 C          4.8078410929        0.5073517621        3.1454720077
 N          2.0208909548       -0.6720357649       -1.2062657981
 C          1.2452299102       -1.2111478900       -2.1937023259
 N          1.9052215797       -1.7550619449       -3.1673706721
 C          3.2253233022       -1.5878638625       -2.8357953697
 C          3.3217721317       -0.9032411458       -1.5957544369
 C          4.6123958759       -0.6429719617       -1.1064359029
 C          5.2508899436       -0.0280249774        0.0065104717
 C          6.5964646708       -0.1492716514       -0.1849900734
 N          6.8481163104       -0.8024098228       -1.3523276856
 C          5.6659040550       -1.1185664455       -1.9415622966
 N          5.5729317114       -1.7631235409       -3.1071332297
 C          4.3564137984       -1.9930184903       -3.5486579682
 H          3.1239729795        1.4505195326       -0.1843324491
 H          1.5718613831        2.0062331255       -0.8079087464
 H          2.2954925665        3.1132019236        1.3260150116
 H          0.7061107398        2.3076694248        1.4793411614
 H          2.4304495311       -0.4404786900        3.3441908396
 H          0.7895522736        0.0402677627        2.8087639869
 H          1.6802175095       -1.7434874781        1.3349270270
 H          3.1887839506       -0.8586572604        1.1247052945
 H          0.1767561886       -1.1951937859       -2.1761360458
 H          4.8092602724        0.4545653840        0.8559977614
 H          7.3911539463        0.1947946125        0.4462928115
 H          4.2677887582       -2.5100847548       -4.4916724732
 H          7.7525070235       -1.0259552437       -1.7321134006
 H         -0.4041227608       -1.0050306906       -0.0462735047
 H         -0.3788826506        0.5171458842        0.8776573182
 H         -0.3522431030        0.5355083893       -0.8773123090
 H          4.5887125219       -0.2244738055        3.9078379482
 H          5.7861630793        0.9548032624        3.2489376104
 H          4.7105178554        0.0791717676        2.1566082482
  42
    -2.416643 !GC
 C          0.0000000000        0.0000000000        0.0000000000
 C          1.5297062591        0.0000000000        0.0000000000
 C          2.0508739619        1.4497201366        0.0000000000
 C          1.7825326228        2.1544573126        1.3346201807
 N          2.2848145951        1.3969406219        2.4531740667
 C          1.8549753431        0.0247146936        2.5497390914
 C          2.1115600351       -0.7491583805        1.2533342227
 S          3.6300291244        1.8364098040        3.2594666072
 O          4.1839642067        2.9668313155        2.5519458325
 O          3.3225097008        2.0202585181        4.6657046185
 C          4.8157147905        0.4902676159        3.1232309482
 N          2.0217870637       -0.6724060393       -1.2056806495
 C          1.2465212637       -1.2128511203       -2.1927246821
 N          1.9069530421       -1.7505799194       -3.1694789518
 C          3.2269284710       -1.5778411014       -2.8405480089
 C          3.3229290081       -0.8965361295       -1.5986442451
 C          4.6132785790       -0.6323125787       -1.1107791477
 C          5.2512359378       -0.0197343387        0.0037440631
 C          6.5969089394       -0.1341816333       -0.1909166602
 N          6.8491608132       -0.7805306360       -1.3619187303
 C          5.6671583153       -1.0997413275       -1.9500504214
 N          5.5746359168       -1.7401954406       -3.1180276752
 C          4.3582350975       -1.9750467057       -3.5573466563
 H          3.1246411929        1.4498779966       -0.1866448412
 H          1.5713635639        2.0071752101       -0.8060605976
 H          2.3015409260        3.1100741698        1.3278687565
 H          0.7115514771        2.3064462511        1.4837644327
 H          2.4332314087       -0.4461769815        3.3434081561
 H          0.7929863235        0.0390098248        2.8105559442
 H          1.6756627208       -1.7461776389        1.3345047721
 H          3.1874433899       -0.8668562561        1.1236415183
 H          0.1779630191       -1.2027851593       -2.1722626581
 H          4.8090984696        0.4560922534        0.8567864596
 H          7.3913357474        0.2096867755        0.4407716976
 H          4.2699370771       -2.4904553468       -4.5013120792
 H          7.7538316871       -0.9991547195       -1.7440236424
 H         -0.3965155848        0.4778738372        0.8890102710
 H         -0.3682874662        0.5053317103       -0.8917049475
 H         -0.3704182977       -1.0182445346       -0.0327562280
 H          5.8109379210        0.8932020214        3.2330122332
 H          4.6572495448        0.0744688432        2.1383197692
 H          4.5859953893       -0.2564080738        3.8713424856
  42
    -2.170315 !GC
 C          0.0000000000        0.0000000000        0.0000000000
 C          1.5284828304        0.0000000000        0.0000000000
 C          2.0660444058        1.4313734387        0.0000000000
 C          2.7881980345        1.7238839907        1.3140912928
 N          1.9148372710        1.4781504102        2.4388665853
 C          1.6555461411        0.0875257239        2.6842386790
 C          1.9270827956       -0.7113721179        1.4104985683
 S          1.8916136563        2.5281665703        3.6916790395
 O          2.6138944462        3.6867418100        3.2167090838
 O          0.5183871873        2.7394740292        4.1080655817
 C          2.7878893621        1.8230987359        5.0848278862
 N          2.0333290845       -0.6646779890       -1.2016042866
 C          1.2840171894       -1.3443671362       -2.1196840605
 N          1.9676062705       -1.8896014177       -3.0776488840
 C          3.2720523023       -1.5522657670       -2.8207457568
 C          3.3392883923       -0.7777936617       -1.6332697842
 C          4.6149482251       -0.3602781198       -1.2142153615
 C          5.2343427659        0.3764678395       -0.1644715733
 C          6.5764527117        0.3802187509       -0.4140326122
 N          6.8445652160       -0.3105991814       -1.5542169656
 C          5.6784351209       -0.7748574205       -2.0712934961
 N          5.6080363696       -1.4949753457       -3.1933023193
 C          4.4089574128       -1.8816748687       -3.5635726534
 H          2.7394794007        1.5965896514       -0.8342298274
 H          1.2177514272        2.1096428013       -0.1037270472
 H          3.6978231015        1.1089271705        1.3812217013
 H          3.0656712390        2.7790625895        1.3511514872
 H          2.3018603070       -0.2797551931        3.4888478613
 H          0.6154129555        0.0171034918        2.9979348651
 H          1.4436967965       -1.6837720329        1.5150476699
 H          3.0020003068       -0.8683642230        1.3179016455
 H          0.2200813418       -1.4293309769       -2.0600861343
 H          4.7909417830        0.8673059997        0.6810721295
 H          7.3561351421        0.8381338667        0.1610939388
 H          4.3363560799       -2.4647967496       -4.4684530614
 H          7.7495587015       -0.4560916102       -1.9694333165
 H         -0.3769095239       -1.0189766896        0.0503988966
 H         -0.3912370845        0.5807879880        0.8276856291
 H         -0.3708061401        0.4332487885       -0.9213020959
 H          2.7695181974        2.5763873484        5.8597368029
 H          3.8024351654        1.6191146898        4.7727532672
 H          2.2707337030        0.9286691471        5.4006257450
  42
    -1.094800 !GC
 C          0.0000000000        0.0000000000        0.0000000000
 C          1.5285878003        0.0000000000        0.0000000000
 C          1.9858654943        1.4578917036        0.0000000000
 C          2.6969495160        1.8494196443        1.2980879980
 N          1.9078751266        1.4704054357        2.4488622545
 C          1.8095893628        0.0529381458        2.6476569529
 C          2.0214737365       -0.6548644049        1.3139816340
 S          1.8299423852        2.4752841383        3.7357497664
 O          2.3727978834        3.7277750037        3.2596395426
 O          0.4690348253        2.5007083466        4.2363352184
 C          2.8901322280        1.8530355376        5.0510546361
 N          2.0328760671       -0.6959909318       -1.1839612995
 C          3.1263551058       -1.5135113846       -1.2315373306
 N          3.3543105938       -2.0435536994       -2.3931714880
 C          2.3654483756       -1.5540259067       -3.2080208205
 C          1.5398129406       -0.6616567282       -2.4725257886
 C          0.5624288933        0.0448334331       -3.1956251993
 C         -0.3818750619        1.0962062167       -3.0185669310
 C         -0.9915969372        1.2956934817       -4.2235734321
 N         -0.4908817583        0.4371675940       -5.1516660017
 C          0.4693506243       -0.3266562938       -4.5709446059
 N          1.1953185351       -1.2262745906       -5.2387780846
 C          2.1490736661       -1.8238919401       -4.5622942974
 H          2.6033165501        1.6745352278       -0.8693000002
 H          1.0799201932        2.0606645988       -0.0906111884
 H          3.6900833203        1.3849388526        1.3527197444
 H          2.8077035534        2.9355329105        1.3333771515
 H          2.5758598886       -0.2984628982        3.3508329189
 H          0.8226156506       -0.1352866825        3.0651307214
 H          1.5913960970       -1.6547414776        1.3739907659
 H          3.0942241070       -0.7269435179        1.1541836504
 H          3.7778074812       -1.6696491481       -0.3984555490
 H         -0.6015413807        1.6785860963       -2.1439188002
 H         -1.7543665220        2.0066502282       -4.4706256671
 H          2.7647972376       -2.5301456988       -5.0972319344
 H         -0.7557281077        0.3791136744       -6.1206927640
 H         -0.3872819905        0.3533006954        0.9503025784
 H         -0.3807778281        0.6179697978       -0.8084559075
 H         -0.3711370659       -1.0055394978       -0.1585844952
 H          2.7768482209        2.5444267320        5.8741210838
 H          3.9107645062        1.8448438140        4.6955380065
 H          2.5449521293        0.8659379958        5.3232672937
  42
    -1.079298 !GC
 C          0.0000000000        0.0000000000        0.0000000000
 C          1.5285526000        0.0000000000        0.0000000000
 C          1.9864497532        1.4578641523        0.0000000000
 C          2.6926155206        1.8509117734        1.3004032146
 N          1.9010620522        1.4712539205        2.4493564266
 C          1.8090068017        0.0538180027        2.6528260787
 C          2.0186466969       -0.6573696275        1.3207996621
 S          1.8200433008        2.4777430497        3.7349544432
 O          2.3240314222        3.7424722890        3.2484044756
 O          0.4664698768        2.4710137485        4.2551208546
 C          2.9150225458        1.8848971899        5.0351564644
 N          2.0332217550       -0.6959994037       -1.1837579941
 C          3.1299455115       -1.5090547263       -1.2328185939
 N          3.3612761726       -2.0344129165       -2.3960323444
 C          2.3713688785       -1.5460206805       -3.2102858686
 C          1.5416150014       -0.6597138620       -2.4727240573
 C          0.5621326184        0.0448912180       -3.1946746616
 C         -0.3863837507        1.0921438599       -3.0154442250
 C         -0.9957424681        1.2927407386       -4.2204519349
 N         -0.4907096338        0.4389801492       -5.1505759566
 C          0.4723127097       -0.3224775138       -4.5712876947
 N          1.2028473095       -1.2167372191       -5.2412782630
 C          2.1580003628       -1.8129005993       -4.5654786250
 H          2.6068987193        1.6732453717       -0.8675307049
 H          1.0812535927        2.0610612829       -0.0947850833
 H          3.6862664522        1.3878753370        1.3588946307
 H          2.8019368269        2.9371810553        1.3355174279
 H          2.5793698529       -0.2930261477        3.3537939291
 H          0.8243493689       -0.1366305585        3.0746127294
 H          1.5878117290       -1.6567235150        1.3836439927
 H          3.0911764041       -0.7305634862        1.1598485518
 H          3.7810494606       -1.6656768934       -0.3995573139
 H         -0.6090226942        1.6711394553       -2.1392665756
 H         -1.7610229472        2.0015418959       -4.4661943309
 H          2.7780049007       -2.5141960607       -5.1019869875
 H         -0.7536030243        0.3835006421       -6.1201923327
 H         -0.3910816854       -0.9994079882       -0.1530511261
 H         -0.3749537730        0.3934785300        0.9431469962
 H         -0.3734301646        0.6437455354       -0.7858663489
 H          2.7988187289        2.5749744611        5.8589501881
 H          3.9298597691        1.8994687624        4.6632998652
 H          2.5965792466        0.8906936768        5.3146603158
  42
    -1.034203 !GC
 C          0.0000000000        0.0000000000        0.0000000000
 C          1.5284550740        0.0000000000        0.0000000000
 C          1.9867603487        1.4575904234        0.0000000000
 C          2.7014929613        1.8464502571        1.2968332216
 N          1.9155201016        1.4669852266        2.4498202559
 C          1.8134710579        0.0493198895        2.6459127877
 C          2.0203797252       -0.6567051263        1.3106736312
 S          1.8524032391        2.4683350343        3.7405439170
 O          2.3930296904        3.7212782937        3.2630880623
 O          0.4966938650        2.4951419290        4.2547780222
 C          2.9249465752        1.8398636608        5.0429604601
 N          2.0337708556       -0.6966085590       -1.1832071236
 C          3.1285980853       -1.5123963532       -1.2294197381
 N          3.3535508989       -2.0493018958       -2.3884500610
 C          2.3615759595       -1.5661531950       -3.2031886716
 C          1.5367001704       -0.6705806142       -2.4704958252
 C          0.5565793288        0.0309218337       -3.1947429343
 C         -0.3868161602        1.0837339903       -3.0216543818
 C         -1.0012330847        1.2745107431       -4.2256473143
 N         -0.5045938180        0.4088508450       -5.1493256483
 C          0.4584445577       -0.3503482170       -4.5670296266
 N          1.1823825724       -1.2543608637       -5.2313225351
 C          2.1401783235       -1.8455467934       -4.5548426349
 H          2.6027622139        1.6748665908       -0.8701843145
 H          1.0811775614        2.0613541215       -0.0878643517
 H          3.6943409469        1.3809778075        1.3478737318
 H          2.8134215994        2.9324142078        1.3333344689
 H          2.5803478616       -0.3060196602        3.3464768182
 H          0.8270816014       -0.1367281225        3.0657705879
 H          1.5855362972       -1.6545737865        1.3693034015
 H          3.0925577402       -0.7336269357        1.1493066681
 H          3.7836156775       -1.6613753914       -0.3977820469
 H         -0.6016795958        1.6736920917       -2.1508670242
 H         -1.7639853462        1.9846006624       -4.4752308761
 H          2.7554559756       -2.5538394939       -5.0876656298
 H         -0.7722421669        0.3447740493       -6.1173033111
 H         -0.3872855160        0.3550232876        0.9496779747
 H         -0.3809097909        0.6163404727       -0.8095567514
 H         -0.3707730537       -1.0059542073       -0.1568167168
 H          2.5856560877        0.8432408538        5.2875934096
 H          2.8135396575        2.5011532293        5.8909462655
 H          3.9422359379        1.8551865366        4.6791620496
  42
    -1.029014 !GC
 C          0.0000000000        0.0000000000        0.0000000000
 C          1.5285375863        0.0000000000        0.0000000000
 C          1.9855287078        1.4580212235        0.0000000000
 C          2.6967992894        1.8498723657        1.2979245625
 N          1.9098547131        1.4689153132        2.4496687575
 C          1.8121645169        0.0510949961        2.6466078231
 C          2.0217735669       -0.6547537367        1.3115975586
 S          1.8386643491        2.4719103027        3.7386455412
 O          2.3752160488        3.7263743762        3.2605747310
 O          0.4812915792        2.4935516883        4.2488716359
 C          2.9102413696        1.8505234993        5.0452139325
 N          2.0331667429       -0.6965353169       -1.1834983166
 C          3.1260497777       -1.5148428974       -1.2305090700
 N          3.3532999342       -2.0463248720       -2.3916094208
 C          2.3646189306       -1.5569679627       -3.2067396139
 C          1.5396354517       -0.6633742233       -2.4719351070
 C          0.5623030161        0.0428683580       -3.1953377229
 C         -0.3813452473        1.0949560055       -3.0190723485
 C         -0.9917057749        1.2931128668       -4.2239887586
 N         -0.4919463792        0.4331241581       -5.1512802696
 C          0.4683851187       -0.3302506335       -4.5701400666
 N          1.1935007751       -1.2311450005       -5.2371843517
 C          2.1473997836       -1.8283298654       -4.5606037977
 H          2.6030271947        1.6747609897       -0.8692855881
 H          1.0794374963        2.0605740598       -0.0907070377
 H          3.6909119730        1.3874320709        1.3514018768
 H          2.8055095680        2.9361875416        1.3337328496
 H          2.5799637090       -0.3014510626        3.3475581545
 H          0.8262080641       -0.1378339138        3.0661745221
 H          1.5899974922       -1.6539348258        1.3703852139
 H          3.0942270722       -0.7284459625        1.1503416663
 H          3.7780395596       -1.6697867076       -0.3976717699
 H         -0.6000968945        1.6786578909       -2.1451142829
 H         -1.7541744164        2.0042329452       -4.4715300457
 H          2.7628226425       -2.5351796090       -5.0951479878
 H         -0.7570513182        0.3744024845       -6.1202482290
 H         -0.3767619607        0.6534592796       -0.7835536202
 H         -0.3990116519       -0.9980961956       -0.1401975738
 H         -0.3631751620        0.3786924311        0.9482098730
 H          2.7797763121        2.5244931339        5.8802314999
 H          3.9311911014        1.8718976825        4.6911168272
 H          2.5875133533        0.8511147426        5.2995509957
  42
    -1.024451 !GC
 C          0.0000000000        0.0000000000        0.0000000000
 C          1.5284395556        0.0000000000        0.0000000000
 C          1.9871494345        1.4575678984        0.0000000000
 C          2.6963461563        1.8486057023        1.2993521253
 N          1.9076161182        1.4682981950        2.4502813620
 C          1.8124582397        0.0506289734        2.6512577620
 C          2.0176814818       -0.6587598773        1.3177313424
 S          1.8389548664        2.4718568188        3.7391486629
 O          2.3415471355        3.7368680604        3.2518734751
 O          0.4895684979        2.4666097727        4.2700997171
 C          2.9436619088        1.8734986225        5.0287298738
 N          2.0338155274       -0.6965214466       -1.1831798141
 C          3.1315560205       -1.5082544192       -1.2313620857
 N          3.3605742273       -2.0386637642       -2.3927436270
 C          2.3674957040       -1.5558948222       -3.2065493295
 C          1.5388456799       -0.6666013678       -2.4709696189
 C          0.5572709063        0.0343383990       -3.1935566344
 C         -0.3897854659        1.0834092908       -3.0172059454
 C         -1.0036160431        1.2769098574       -4.2211273637
 N         -0.5027041859        0.4169825658       -5.1477592249
 C          0.4625951303       -0.3409704555       -4.5676533327
 N          1.1906646647       -1.2392353117       -5.2350513718
 C          2.1490580215       -1.8305560060       -4.5596091784
 H          2.6061505277        1.6734236938       -0.8684958836
 H          1.0821617815        2.0614675029       -0.0924605938
 H          3.6898963622        1.3850875833        1.3549230093
 H          2.8063464759        2.9347955546        1.3354255961
 H          2.5834759719       -0.2996394567        3.3497754925
 H          0.8283687208       -0.1380392177        3.0751892308
 H          1.5826395113       -1.6564022895        1.3790789752
 H          3.0896659621       -0.7362937944        1.1552825211
 H          3.7857887422       -1.6589429874       -0.3995200234
 H         -0.6078628160        1.6687020136       -2.1440534810
 H         -1.7692395806        1.9847658893       -4.4685351766
 H          2.7679863803       -2.5338030233       -5.0948111183
 H         -0.7688688180        0.3560126849       -6.1161563534
 H         -0.3808026418        0.3638433585        0.9501973994
 H         -0.3931370636        0.6242876646       -0.7971241237
 H         -0.3654026337       -1.0072403217       -0.1542572852
 H          2.6364751695        0.8677346351        5.2785656249
 H          2.8243914479        2.5323114825        5.8777414074
 H          3.9553398284        1.9170196961        4.6514289463
  42
    -1.016655 !GC
 C          0.0000000000        0.0000000000        0.0000000000
 C          1.5284198737        0.0000000000        0.0000000000
 C          1.9873445959        1.4575624357        0.0000000000
 C          2.6971641523        1.8479424961        1.2991646010
 N          1.9087040781        1.4678357182        2.4503355853
 C          1.8129081516        0.0501701941        2.6510708409
 C          2.0175776349       -0.6592159659        1.3174705775
 S          1.8424982851        2.4708044303        3.7398067304
 O          2.3441792660        3.7360956159        3.2523328187
 O          0.4942524275        2.4653867269        4.2734590830
 C          2.9497441086        1.8717226730        5.0268461156
 N          2.0341164274       -0.6966167276       -1.1830035807
 C          3.1321820623       -1.5079351792       -1.2307062608
 N          3.3605238145       -2.0401745238       -2.3913452201
 C          2.3675191531       -1.5581749773       -3.2055018261
 C          1.5384865720       -0.6686315343       -2.4707052582
 C          0.5562667689        0.0309977483       -3.1937720603
 C         -0.3913291737        1.0797087285       -3.0184552961
 C         -1.0053921961        1.2715982907       -4.2224536524
 N         -0.5044512343        0.4106867358       -5.1482217268
 C          0.4613726385       -0.3461571575       -4.5673942518
 N          1.1898592258       -1.2448247835       -5.2339064484
 C          2.1490490620       -1.8345579279       -4.5581284838
 H          2.6063467695        1.6735739684       -0.8684216139
 H          1.0825009748        2.0617531196       -0.0920391751
 H          3.6905429740        1.3839105811        1.3540656824
 H          2.8076571644        2.9340643123        1.3354972120
 H          2.5838876187       -0.3006226254        3.3494243466
 H          0.8288404395       -0.1381287954        3.0752260876
 H          1.5819944961       -1.6565691181        1.3789236438
 H          3.0895303366       -0.7372348367        1.1549564533
 H          3.7868340404       -1.6573797744       -0.3988661845
 H         -0.6091550831        1.6662997726       -2.1460949321
 H         -1.7706535509        1.9795493220       -4.4706913042
 H          2.7685873266       -2.5378941900       -5.0925720581
 H         -0.7701587575        0.3491860468       -6.1168080705
 H         -0.3910852828       -0.9996992315       -0.1512471972
 H         -0.3750867466        0.3952539807        0.9422826125
 H         -0.3730669116        0.6424331997       -0.7871159625
 H          2.6394369635        0.8677490593        5.2798667284
 H          2.8359232946        2.5330621293        5.8746109163
 H          3.9603105283        1.9105778209        4.6459707268
  42
    -0.964287 !GC
 C          0.0000000000        0.0000000000        0.0000000000
 C          1.5284962040        0.0000000000        0.0000000000
 C          1.9865790275        1.4576468599        0.0000000000
 C          2.7003412121        1.8473428141        1.2971917333
 N          1.9134274020        1.4684264501        2.4496216895
 C          1.8120823016        0.0508338812        2.6466364330
 C          2.0207037851       -0.6561972642        1.3120932147
 S          1.8460746493        2.4706234346        3.7394501000
 O          2.3929142508        3.7216400824        3.2640958948
 O          0.4875841143        2.5013414324        4.2462015540
 C          2.9091640730        1.8398114223        5.0483839764
 N          2.0332563695       -0.6964699231       -1.1835033929
 C          3.1279397534       -1.5124529820       -1.2303801143
 N          3.3545541284       -2.0460609619       -2.3906084363
 C          2.3632292312       -1.5610736406       -3.2051728398
 C          1.5378756221       -0.6669889240       -2.4712813400
 C          0.5589250527        0.0364670672       -3.1952075113
 C         -0.3849759041        1.0885645970       -3.0205181498
 C         -0.9974521031        1.2828132138       -4.2249852999
 N         -0.4989015081        0.4202058887       -5.1504864869
 C          0.4629102939       -0.3408417352       -4.5687365267
 N          1.1877197108       -1.2429876698       -5.2344632508
 C          2.1437923681       -1.8367520178       -4.5578883872
 H          2.6028972236        1.6746430080       -0.8700219814
 H          1.0809049736        2.0611059345       -0.0887112420
 H          3.6931834877        1.3819443333        1.3493475440
 H          2.8123186471        2.9333011496        1.3332393872
 H          2.5785203317       -0.3033597022        3.3482190889
 H          0.8253391280       -0.1355013094        3.0655647799
 H          1.5870900047       -1.6545517453        1.3713682926
 H          3.0930505957       -0.7320416092        1.1514004571
 H          3.7819101367       -1.6637873114       -0.3983971275
 H         -0.6018930149        1.6754153239       -2.1481839301
 H         -1.7604635959        1.9930138267       -4.4734917086
 H          2.7601250792       -2.5433307742       -5.0917920849
 H         -0.7652373331        0.3586907540       -6.1189835634
 H         -0.3874988145        0.3535162810        0.9501610944
 H         -0.3808735066        0.6175089238       -0.8087670001
 H         -0.3706442938       -1.0058116491       -0.1582037385
 H          3.9215360836        1.8368847892        4.6700287399
 H          2.5688579877        0.8503119863        5.3196022456
 H          2.8092577134        2.5189194999        5.8831152964
  42
    -0.954235 !GC
 C          0.0000000000        0.0000000000        0.0000000000
 C          1.5284747558        0.0000000000        0.0000000000
 C          1.9865652058        1.4575957954        0.0000000000
 C          2.7006757343        1.8471135675        1.2970237392
 N          1.9144312296        1.4674474132        2.4497688239
 C          1.8130220394        0.0497739498        2.6460974814
 C          2.0204850685       -0.6562487958        1.3109304690
 S          1.8488585076        2.4693878100        3.7398953013
 O          2.3903784157        3.7220561857        3.2627170047
 O          0.4920464182        2.4963602430        4.2513987185
 C          2.9188357619        1.8416483134        5.0447988858
 N          2.0334699199       -0.6965132004       -1.1833832836
 C          3.1279709296       -1.5127142244       -1.2300764093
 N          3.3536047028       -2.0477944315       -2.3898566523
 C          2.3615568517       -1.5638760203       -3.2042445889
 C          1.5370557364       -0.6685491192       -2.4707624334
 C          0.5575801788        0.0342657552       -3.1945237301
 C         -0.3852707815        1.0874393705       -3.0203920313
 C         -0.9994589808        1.2798303310       -4.2243071731
 N         -0.5028546670        0.4151541929       -5.1488588359
 C          0.4596581467       -0.3451566687       -4.5672914038
 N          1.1831728314       -1.2487665296       -5.2324803416
 C          2.1401710013       -1.8415405911       -4.5563398677
 H          2.6025656788        1.6747159278       -0.8702589499
 H          1.0808369350        2.0610687687       -0.0882857675
 H          3.6936981580        1.3821540984        1.3487341824
 H          2.8121109896        2.9331462569        1.3332679307
 H          2.5799391297       -0.3050440065        3.3468252173
 H          0.8266108419       -0.1366466299        3.0657297305
 H          1.5861848446       -1.6544069364        1.3694516985
 H          3.0926945266       -0.7326834783        1.1496293540
 H          3.7825665720       -1.6629348919       -0.3984333078
 H         -0.6003818286        1.6761004925       -2.1488052343
 H         -1.7625742929        1.9898305491       -4.4730520695
 H          2.7548321741       -2.5497424540       -5.0899291766
 H         -0.7709656615        0.3516129936       -6.1166464327
 H         -0.3769633750        0.6550651077       -0.7821507111
 H         -0.3988643890       -0.9979712859       -0.1421497468
 H         -0.3630924678        0.3767612490        0.9490099294
 H          2.5826824735        0.8431503624        5.2862382423
 H          2.8018859838        2.5004979776        5.8939663519
 H          3.9372920146        1.8616272717        4.6846163629
  42
    -0.950422 !GC
 C          0.0000000000        0.0000000000        0.0000000000
 C          1.5284610037        0.0000000000        0.0000000000
 C          1.9871632740        1.4576189666        0.0000000000
 C          2.6960110321        1.8488352260        1.2995185502
 N          1.9066116410        1.4692766648        2.4501308165
 C          1.8115134985        0.0516916617        2.6517968236
 C          2.0178951166       -0.6587035145        1.3188944586
 S          1.8361711490        2.4730900949        3.7386966011
 O          2.3441538281        3.7365662735        3.2531166331
 O          0.4849479796        2.4715622716        4.2649176639
 C          2.9341306081        1.8715436348        5.0324376954
 N          2.0336020049       -0.6964782226       -1.1832999769
 C          3.1315237611       -1.5079923931       -1.2316671015
 N          3.3615160014       -2.0369225355       -2.3934918017
 C          2.3691558518       -1.5530797058       -3.2074679796
 C          1.5396687558       -0.6650427260       -2.4714862365
 C          0.5586202789        0.0365355800       -3.1942458567
 C         -0.3894856389        1.0845237019       -3.0173524083
 C         -1.0016031772        1.2798837252       -4.2218238481
 N         -0.4987444266        0.4220325070       -5.1493898563
 C          0.4658541907       -0.3366557746       -4.5690931731
 N          1.1952196737       -1.2334511286       -5.2370128345
 C          2.1526873807       -1.8257625151       -4.5611319238
 H          2.6064812906        1.6733509396       -0.8682576839
 H          1.0822314544        2.0615041415       -0.0928857830
 H          3.6893801994        1.3848782687        1.3555343734
 H          2.8065541573        2.9349513082        1.3353969507
 H          2.5820530475       -0.2979538848        3.3511692120
 H          0.8270888503       -0.1368885391        3.0750276380
 H          1.5835376856       -1.6565400686        1.3809934884
 H          3.0900181087       -0.7356483030        1.1570537335
 H          3.7851359886       -1.6597996829       -0.3994907994
 H         -0.6093697478        1.6680002919       -2.1434633135
 H         -1.7671235273        1.9879374122       -4.4690005669
 H          2.7732857173       -2.5273794328       -5.0966299387
 H         -0.7631343093        0.3630935702       -6.1184872515
 H         -0.3912980283       -0.9993883016       -0.1527945057
 H         -0.3750498375        0.3939806124        0.9429026623
 H         -0.3729384975        0.6435559174       -0.7862939370
 H          3.9408567913        1.8914539422        4.6397330434
 H          2.6212016647        0.8751208923        5.3115949418
 H          2.8302606189        2.5513810696        5.8663058814
  42
    -0.939714 !GC
 C          0.0000000000        0.0000000000        0.0000000000
 C          1.5285739220        0.0000000000        0.0000000000
 C          1.9856876602        1.4579849013        0.0000000000
 C          2.6966215394        1.8496163145        1.2982021118
 N          1.9081896436        1.4697909358        2.4491391340
 C          1.8099720908        0.0522906591        2.6473198310
 C          2.0214139831       -0.6550660710        1.3133637490
 S          1.8275426560        2.4750318273        3.7353443233
 O          2.3638436713        3.7297246568        3.2575330929
 O          0.4673507208        2.4943558573        4.2381083376
 C          2.8932102006        1.8589599681        5.0491441334
 N          2.0328799013       -0.6962598306       -1.1838074913
 C          3.1267875036       -1.5131721599       -1.2313614626
 N          3.3546903327       -2.0436392945       -2.3928165277
 C          2.3655211423       -1.5547575718       -3.2076671347
 C          1.5394060877       -0.6627749525       -2.4722387327
 C          0.5613546780        0.0428073179       -3.1953566044
 C         -0.3834192167        1.0938012439       -3.0185440245
 C         -0.9943175397        1.2916776893       -4.2232302349
 N         -0.4939377749        0.4324441838       -5.1508553933
 C          0.4674221714       -0.3300525355       -4.5702224025
 N          1.1933748280       -1.2299132878       -5.2377507891
 C          2.1483446933       -1.8259696009       -4.5616055104
 H          2.6033796265        1.6746512114       -0.8691351587
 H          1.0797290673        2.0606980988       -0.0908143592
 H          3.6901378550        1.3859577005        1.3526446104
 H          2.8063388158        2.9358249947        1.3336910439
 H          2.5767782311       -0.2994925736        3.3497077750
 H          0.8233429431       -0.1362136906        3.0654984454
 H          1.5908703443       -1.6547356450        1.3731487038
 H          3.0940988086       -0.7277206299        1.1532664938
 H          3.7788489893       -1.6681323639       -0.3985771973
 H         -0.6021422614        1.6774616663       -2.1444906745
 H         -1.7574675704        2.0022033109       -4.4704288035
 H          2.7641124061       -2.5323467300       -5.0963782759
 H         -0.7591943176        0.3736029653       -6.1197729061
 H         -0.3949292406       -0.9941266542       -0.1824239102
 H         -0.3913935485        0.3912503653        0.9323287424
 H         -0.3526114171        0.6382751756       -0.8047932522
 H          3.9082370368        1.8796132201        4.6784355613
 H          2.5719765668        0.8606853119        5.3118873151
 H          2.7724444600        2.5307482191        5.8871609307
  42
    -0.939388 !GC
 C          0.0000000000        0.0000000000        0.0000000000
 C          1.5285881788        0.0000000000        0.0000000000
 C          1.9859405337        1.4580335682        0.0000000000
 C          2.6908713033        1.8517669352        1.3008663403
 N          1.8988202886        1.4719183099        2.4493630316
 C          1.8077306098        0.0543607236        2.6530636951
 C          2.0187697923       -0.6573029890        1.3215391742
 S          1.8159370524        2.4783162062        3.7349283776
 O          2.3224546827        3.7425645747        3.2497453469
 O          0.4611727364        2.4730429881        4.2519603475
 C          2.9070584545        1.8838859968        5.0376523235
 N          2.0328672798       -0.6960895640       -1.1839048786
 C          3.1292105817       -1.5095951081       -1.2333714762
 N          3.3622816681       -2.0319147188       -2.3976088343
 C          2.3738052121       -1.5409909613       -3.2121007478
 C          1.5431160071       -0.6565982015       -2.4734856013
 C          0.5646136007        0.0497363869       -3.1950789070
 C         -0.3848828301        1.0958615750       -3.0145664344
 C         -0.9924119486        1.2994712222       -4.2198994303
 N         -0.4852962671        0.4486970464       -5.1515493788
 C          0.4771149600       -0.3138646645       -4.5727902812
 N          1.2086467066       -1.2064373202       -5.2439711005
 C          2.1623970404       -1.8047576326       -4.5681475546
 H          2.6070641515        1.6733833080       -0.8670467569
 H          1.0805796181        2.0608396816       -0.0956947311
 H          3.6847942193        1.3893984894        1.3602834896
 H          2.7995844098        2.9380467865        1.3357909373
 H          2.5781535880       -0.2916527881        3.3543421440
 H          0.8230053936       -0.1367420545        3.0743659771
 H          1.5893616296       -1.6572157229        1.3849203004
 H          3.0914881246       -0.7293318230        1.1608732771
 H          3.7791143561       -1.6684794219       -0.3996356491
 H         -0.6090970557        1.6725182213       -2.1373419735
 H         -1.7576375395        2.0086350715       -4.4648752054
 H          2.7845016844       -2.5031363072       -5.1059762224
 H         -0.7464048107        0.3958828121       -6.1218186535
 H         -0.3805657138        0.3650061199        0.9498093662
 H         -0.3932076836        0.6233191536       -0.7976912725
 H         -0.3656008324       -1.0073322838       -0.1530656911
 H          3.9150390915        1.8952689211        4.6480638525
 H          2.5881858256        0.8917602421        5.3249869481
 H          2.8039784146        2.5721794446        5.8646790746
  42
    -0.872906 !GC
 C          0.0000000000        0.0000000000        0.0000000000
 C          1.5286233790        0.0000000000        0.0000000000
 C          1.9853562650        1.4580608880        0.0000000000
 C          2.6952075359        1.8502754060        1.2985559501
 N          1.9056335966        1.4710707131        2.4488743100
 C          1.8083156592        0.0534755729        2.6478926298
 C          2.0215968202       -0.6547995828        1.3147174885
 S          1.8258364390        2.4758584830        3.7357333096
 O          2.3711862603        3.7278209497        3.2610738178
 O          0.4638205966        2.5027544542        4.2331746044
 C          2.8820959428        1.8520669490        5.0534717200
 N          2.0325215349       -0.6960810258       -1.1841080978
 C          3.1256189264       -1.5140500495       -1.2320903683
 N          3.3553240103       -2.0410638382       -2.3947604490
 C          2.3679001764       -1.5490120393       -3.2098563139
 C          1.5413071359       -0.6585382510       -2.4732917332
 C          0.5649021963        0.0496878888       -3.1960195435
 C         -0.3803785008        1.0999428466       -3.0176535294
 C         -0.9882760309        1.3024463646       -4.2229854065
 N         -0.4854843176        0.4468996063       -5.1526289292
 C          0.4741376921       -0.3180360322       -4.5724542150
 N          1.2010948787       -1.2159726368       -5.2415034635
 C          2.1534467266       -1.8157496507       -4.5650049556
 H          2.6034831554        1.6746716249       -0.8688188963
 H          1.0792429245        2.0604435919       -0.0915212073
 H          3.6886174036        1.3864612092        1.3541130379
 H          2.8053532153        2.9364000212        1.3336576834
 H          2.5746488247       -0.2970993186        3.3513787579
 H          0.8212744101       -0.1354074271        3.0648789232
 H          1.5929469116       -1.6552361177        1.3752622495
 H          3.0945343882       -0.7257127824        1.1552051965
 H          3.7758646964       -1.6724429332       -0.3985257694
 H         -0.6016133883        1.6799870155       -2.1419428185
 H         -1.7509895551        2.0137724109       -4.4692559034
 H          2.7712705090       -2.5190979718       -5.1012954920
 H         -0.7485501715        0.3915096498       -6.1223184045
 H         -0.3767259633        0.6541574338       -0.7829794118
 H         -0.3989338347       -0.9979779193       -0.1410322101
 H         -0.3632911239        0.3778383375        0.9484865206
 H          3.8954931806        1.8407102599        4.6782675805
 H          2.5358677649        0.8668971057        5.3325524232
 H          2.7832031457        2.5394377016        5.8815596638
  42
    -0.816450 !GC
 C          0.0000000000        0.0000000000        0.0000000000
 C          1.5336446473        0.0000000000        0.0000000000
 C          1.9164000784        1.4892773366        0.0000000000
 C          3.4256288824        1.7382864402        0.1077284497
 N          4.0267021486        1.0151346581        1.2063355091
 C          3.6294702288       -0.3721001489        1.2989409063
 C          2.1124131886       -0.5450268335        1.2701521608
 S          4.5022695494        1.8572418117        2.5494176044
 O          3.9825928662        3.2110776609        2.5024040798
 O          4.1951992347        1.0985461929        3.7476927974
 C          6.2800168922        1.9132271301        2.3472859458
 N          2.0272074398       -0.7206046277       -1.1713697950
 C          2.9662695442       -1.7118252293       -1.1691812132
 N          3.2065703918       -2.2376690904       -2.3293595378
 C          2.3944862588       -1.5559079159       -3.1993904920
 C          1.6570987978       -0.5719625522       -2.4902351043
 C          0.8361113479        0.2802380790       -3.2479366354
 C          0.0041606454        1.4231028857       -3.0815888899
 C         -0.4829828676        1.7483517952       -4.3139532257
 N         -0.0092469817        0.8816449178       -5.2500847897
 C          0.8080524566       -0.0168399518       -4.6424411638
 N          1.4662248917       -0.9747328987       -5.3004384853
 C          2.2632529477       -1.7310514633       -4.5789822082
 H          1.5555827091        2.0105753819       -0.8837537610
 H          1.4127097584        1.9182984030        0.8712091166
 H          3.9130277529        1.4038742479       -0.8123223686
 H          3.6497652080        2.7919951838        0.2693038416
 H          4.0549695074       -0.9102390398        0.4453238774
 H          4.0654474322       -0.7566811969        2.2203415320
 H          1.6451718195       -0.0431735489        2.1171664906
 H          1.9070778462       -1.6072860111        1.3625126179
 H          3.4965302289       -2.0219526642       -0.2942908775
 H         -0.2068315701        1.9791526966       -2.1899767005
 H         -1.1399818773        2.5523928703       -4.5784921194
 H          2.8183718781       -2.4965448284       -5.0992616843
 H         -0.2028165631        0.8976523670       -6.2372494604
 H         -0.3877303791        0.2473184445        0.9845143323
 H         -0.3776614769        0.7226175391       -0.7203402814
 H         -0.3624737988       -0.9823635248       -0.2825900252
 H          6.4863197767        2.4865758912        1.4547534219
 H          6.6224549881        0.8922983555        2.2578848540
 H          6.6950989129        2.3913263646        3.2244004084
  42
    -0.806336 !GC
 C          0.0000000000        0.0000000000        0.0000000000
 C          1.5337266550        0.0000000000        0.0000000000
 C          1.9149357217        1.4896739082        0.0000000000
 C          3.4233856152        1.7420859090        0.1116959977
 N          4.0251309059        1.0184031342        1.2095606911
 C          3.6310750032       -0.3700744008        1.2986986557
 C          2.1142699821       -0.5453309207        1.2704911975
 S          4.4916027870        1.8559883652        2.5589146990
 O          3.9372659828        3.1966939286        2.5325762646
 O          4.2142163714        1.0756600130        3.7504327006
 C          6.2651314268        1.9636659193        2.3409595248
 N          2.0277345962       -0.7208671841       -1.1710225899
 C          2.9645308201       -1.7141512886       -1.1685976988
 N          3.2045988022       -2.2399119817       -2.3288695328
 C          2.3940002972       -1.5566201341       -3.1990379597
 C          1.6584922861       -0.5712261703       -2.4900247461
 C          0.8387424788        0.2822648653       -3.2476702263
 C          0.0078192292        1.4258490648       -3.0810395850
 C         -0.4788237335        1.7520010130       -4.3134180587
 N         -0.0064142682        0.8846747562       -5.2495892369
 C          0.8100247067       -0.0147176534       -4.6421399617
 N          1.4670082575       -0.9733230902       -5.3002076461
 C          2.2626444893       -1.7312140773       -4.5788190137
 H          1.5560846650        2.0092180943       -0.8855417414
 H          1.4075807595        1.9196030923        0.8687397322
 H          3.9140176297        1.4118483310       -0.8081817312
 H          3.6433453866        2.7961272884        0.2766288260
 H          4.0566795495       -0.9046673468        0.4429633655
 H          4.0692535948       -0.7564749472        2.2183050248
 H          1.6465583990       -0.0442876536        2.1176197167
 H          1.9101111513       -1.6079447449        1.3620771096
 H          3.4929873289       -2.0262380698       -0.2933182589
 H         -0.2024848845        1.9819591441       -2.1893382111
 H         -1.1347186488        2.5569704003       -4.5778260326
 H          2.8184997411       -2.4957836524       -5.0996207159
 H         -0.2000020716        0.9011837118       -6.2367241369
 H         -0.3848308613        0.2262321804        0.9912863195
 H         -0.3879253675        0.7106219343       -0.7246353502
 H         -0.3555839303       -0.9846195982       -0.2859234837
 H          6.4478574925        2.5835641160        1.4750661580
 H          6.6280537446        0.9562523764        2.1982633866
 H          6.6811135186        2.4078418125        3.2348412689
  42
    -0.804515 !GC
 C          0.0000000000        0.0000000000        0.0000000000
 C          1.5336726561        0.0000000000        0.0000000000
 C          1.9153388117        1.4895709300        0.0000000000
 C          3.4238189813        1.7411586368        0.1122809656
 N          4.0247744645        1.0162051992        1.2097182639
 C          3.6293694975       -0.3719622380        1.2978391590
 C          2.1123955609       -0.5457903960        1.2697885400
 S          4.4924927995        1.8518149775        2.5598682804
 O          3.9460164526        3.1956769665        2.5313564664
 O          4.2073632759        1.0736975227        3.7510186244
 C          6.2672875948        1.9484075479        2.3469231639
 N          2.0274009825       -0.7205258045       -1.1713205084
 C          2.9635467845       -1.7144475574       -1.1693713067
 N          3.2047837292       -2.2383554190       -2.3302417371
 C          2.3957787044       -1.5529951056       -3.2003027817
 C          1.6595038861       -0.5687686710       -2.4904503229
 C          0.8408298481        0.2861659048       -3.2475453866
 C          0.0097292624        1.4294543600       -3.0798539249
 C         -0.4749423782        1.7581210783       -4.3122944950
 N         -0.0006510817        0.8930493359       -5.2495927161
 C          0.8145918145       -0.0077740601       -4.6426898487
 N          1.4725375619       -0.9650984798       -5.3016596390
 C          2.2666648605       -1.7247235958       -4.5805217774
 H          1.5567689189        2.0096691433       -0.8854036993
 H          1.4083491272        1.9195576256        0.8688477711
 H          3.9140952528        1.4107674283       -0.8076928671
 H          3.6447908591        2.7949430580        0.2777627651
 H          4.0546759403       -0.9064870562        0.4418892309
 H          4.0669649489       -0.7593375460        2.2173081657
 H          1.6452459054       -0.0446536720        2.1171847808
 H          1.9072195300       -1.6082307241        1.3608824206
 H          3.4908822380       -2.0281341041       -0.2939871524
 H         -0.2025767679        1.9832609107       -2.1871977743
 H         -1.1307564418        2.5634088327       -4.5759955251
 H          2.8218168120       -2.4895430830       -5.1017535793
 H         -0.1925028923        0.9117448774       -6.2370153528
 H         -0.4028561853       -0.9676077897       -0.2781204804
 H         -0.3593509507        0.2743406353        0.9923725196
 H         -0.3654036512        0.7476562237       -0.6950509715
 H          6.4559869077        2.5661925691        1.4805841253
 H          6.6246832867        0.9383709403        2.2066333277
 H          6.6831803080        2.3916048991        3.2416282642
  42
    -0.803629 !GC
 C          0.0000000000        0.0000000000        0.0000000000
 C          1.5337192112        0.0000000000        0.0000000000
 C          1.9154011003        1.4896153485        0.0000000000
 C          3.4239060429        1.7419414797        0.1103082584
 N          4.0268741760        1.0198005757        1.2084552806
 C          3.6331109593       -0.3686845968        1.2995025029
 C          2.1161686349       -0.5432767315        1.2708663400
 S          4.4958638759        1.8557697387        2.5579014020
 O          3.9620353108        3.2044605375        2.5223790037
 O          4.1979742931        1.0842001644        3.7501995094
 C          6.2726329248        1.9337210836        2.3541703525
 N          2.0274155511       -0.7206864496       -1.1712568777
 C          2.9654434542       -1.7128459467       -1.1696498587
 N          3.2057028288       -2.2377958904       -2.3302602587
 C          2.3937269551       -1.5553221177       -3.1997484708
 C          1.6568977590       -0.5715767766       -2.4899684848
 C          0.8355855147        0.2809548413       -3.2470008405
 C          0.0034111159        1.4235276952       -3.0795295091
 C         -0.4850081181        1.7486719936       -4.3114421281
 N         -0.0122169262        0.8820130653       -5.2480088248
 C          0.8063002768       -0.0159108753       -4.6414132441
 N          1.4640686807       -0.9734789823       -5.3000036568
 C          2.2621531853       -1.7294055037       -4.5795632231
 H          1.5558677490        2.0102508864       -0.8846910235
 H          1.4093423685        1.9194191307        0.8694977597
 H          3.9132850547        1.4099872463       -0.8095785457
 H          3.6441976236        2.7962382355        0.2733408767
 H          4.0595005143       -0.9045791043        0.4449590442
 H          4.0707239335       -0.7538011175        2.2199312624
 H          1.6482239516       -0.0422947162        2.1178694011
 H          1.9111754621       -1.6057565306        1.3616025208
 H          3.4956570504       -2.0237465483       -0.2950074342
 H         -0.2067992141        1.9794471726       -2.1876047071
 H         -1.1427825587        2.5522919444       -4.5751914668
 H          2.8171549121       -2.4944955871       -5.1006571355
 H         -0.2070348985        0.8978178220       -6.2348370670
 H         -0.3851556017        0.2292612689        0.9904730673
 H         -0.3880180367        0.7082135818       -0.7269347551
 H         -0.3551743398       -0.9856436888       -0.2827907193
 H          6.6311263200        2.4163709687        3.2532238350
 H          6.4667619604        2.5699474772        1.5027568710
 H          6.6846995991        0.9403810698        2.2518391360
  42
    -0.794390 !GC
 C          0.0000000000        0.0000000000        0.0000000000
 C          1.5337422995        0.0000000000        0.0000000000
 C          1.9146542630        1.4896847933        0.0000000000
 C          3.4230117802        1.7419902711        0.1123353333
 N          4.0230469035        1.0187526556        1.2114600784
 C          3.6290007976       -0.3696261022        1.3001135219
 C          2.1122863629       -0.5454867620        1.2697568068
 S          4.4909591954        1.8592317668        2.5582301087
 O          3.9503867859        3.2052240266        2.5219211201
 O          4.2001424200        1.0882711971        3.7526800153
 C          6.2666418006        1.9461565235        2.3489464444
 N          2.0272278798       -0.7204486371       -1.1715267534
 C          2.9619805463       -1.7156952253       -1.1693999241
 N          3.2065171392       -2.2364564082       -2.3309936280
 C          2.4014339655       -1.5473754913       -3.2017057636
 C          1.6637899181       -0.5643972145       -2.4914317350
 C          0.8482631690        0.2933446032       -3.2488381591
 C          0.0157986308        1.4355614663       -3.0804547584
 C         -0.4626200523        1.7694874702       -4.3139604670
 N          0.0160134717        0.9080855955       -5.2524144356
 C          0.8282133553        0.0047576267       -4.6452443818
 N          1.4881440288       -0.9506783740       -5.3049037239
 C          2.2777740416       -1.7142558213       -4.5830060487
 H          1.5555211192        2.0091253346       -0.8855087959
 H          1.4073143593        1.9189930715        0.8689554611
 H          3.9137956478        1.4103996829       -0.8069350140
 H          3.6437030486        2.7960802112        0.2761652794
 H          4.0563802475       -0.9044898606        0.4453437966
 H          4.0651074424       -0.7555512936        2.2208696223
 H          1.6437058117       -0.0463981381        2.1175933855
 H          1.9091612511       -1.6084138715        1.3598135366
 H          3.4855417471       -2.0331898293       -0.2931086719
 H         -0.2014936786        1.9852791801       -2.1865186615
 H         -1.1170563830        2.5758724649       -4.5777302065
 H          2.8345434444       -2.4776475457       -5.1046410490
 H         -0.1716855712        0.9301113794       -6.2405632465
 H         -0.4028747212       -0.9669988169       -0.2799942974
 H         -0.3595656230        0.2722755061        0.9928577125
 H         -0.3655576817        0.7487940483       -0.6936360105
 H          6.4531607831        2.5431949407        1.4679087983
 H          6.6270363997        0.9339521938        2.2344899898
 H          6.6815575355        2.4120244496        3.2326911717
  42
    -0.791747 !GC
 C          0.0000000000        0.0000000000        0.0000000000
 C          1.5336580209        0.0000000000        0.0000000000
 C          1.9156884525        1.4894336516        0.0000000000
 C          3.4249150079        1.7399224906        0.1036264039
 N          4.0294369037        1.0155724598        1.1994623141
 C          3.6304676068       -0.3711048279        1.2921234905
 C          2.1131631373       -0.5420731860        1.2665431526
 S          4.5129702346        1.8592667849        2.5389168406
 O          3.9836627858        3.2096391128        2.4981714335
 O          4.2226670047        1.0975224311        3.7393352680
 C          6.2882337568        1.9291160632        2.3193839231
 N          2.0277032764       -0.7199511427       -1.1716184146
 C          2.9659693918       -1.7119532276       -1.1688186323
 N          3.2111863288       -2.2339117562       -2.3297118653
 C          2.4034966690       -1.5485467281       -3.2008918955
 C          1.6630919858       -0.5668922667       -2.4914919964
 C          0.8455882653        0.2879167783       -3.2499904648
 C          0.0119770181        1.4294691495       -3.0834041990
 C         -0.4678384549        1.7602687570       -4.3171349355
 N          0.0113245297        0.8975874816       -5.2542878538
 C          0.8250924233       -0.0035262947       -4.6458201773
 N          1.4866983913       -0.9587748377       -5.3042651356
 C          2.2796254046       -1.7182195982       -4.5816413003
 H          1.5519530049        2.0107150361       -0.8823995932
 H          1.4140323514        1.9175047538        0.8727899042
 H          3.9102035375        1.4075653472       -0.8182899149
 H          3.6485060829        2.7934796135        0.2663439764
 H          4.0527782011       -0.9092212613        0.4368936601
 H          4.0684627641       -0.7566976398        2.2121490143
 H          1.6484374757       -0.0392825354        2.1144393483
 H          1.9070206318       -1.6040859227        1.3601770971
 H          3.4920663284       -2.0256103144       -0.2926902731
 H         -0.2052337724        1.9808910146       -2.1904924038
 H         -1.1233769194        2.5654160530       -4.5820518978
 H          2.8376901462       -2.4815184164       -5.1019402095
 H         -0.1756390193        0.9183853927       -6.2427155169
 H         -0.3594454027       -0.9883526301       -0.2880438439
 H         -0.3880504178        0.2420228356        0.9859590733
 H         -0.3812975233        0.7175354271       -0.7138266856
 H          6.6541971932        2.4280644098        3.2066812666
 H          6.4800797260        2.5471145542        1.4540501150
 H          6.6954653710        0.9318944317        2.2345222334
  42
    -0.790767 !GC
 C          0.0000000000        0.0000000000        0.0000000000
 C          1.5337261503        0.0000000000        0.0000000000
 C          1.9144359019        1.4897929998        0.0000000000
 C          3.4228934957        1.7423473699        0.1113423761
 N          4.0246355514        1.0189911800        1.2093878279
 C          3.6308697561       -0.3695006234        1.2990762647
 C          2.1141051454       -0.5453034833        1.2705941948
 S          4.4940385487        1.8571565003        2.5572116974
 O          3.9409538722        3.1983621296        2.5309409595
 O          4.2181375335        1.0779919131        3.7498230594
 C          6.2672158892        1.9625959967        2.3356285302
 N          2.0275595331       -0.7208678337       -1.1711062033
 C          2.9640322749       -1.7144665424       -1.1687884905
 N          3.2043294748       -2.2397938300       -2.3292249608
 C          2.3945480614       -1.5556033178       -3.1994102436
 C          1.6591639883       -0.5702282174       -2.4902182780
 C          0.8399898060        0.2838988050       -3.2477715061
 C          0.0086447370        1.4271250508       -3.0807782202
 C         -0.4763552544        1.7548052657       -4.3134031363
 N         -0.0034406000        0.8881015578       -5.2498730222
 C          0.8120288056       -0.0121795528       -4.6424739493
 N          1.4692710427       -0.9704098479       -5.3008229664
 C          2.2641591909       -1.7290964597       -4.5794211369
 H          1.5552481938        2.0093971688       -0.8853669450
 H          1.4073297334        1.9194182905        0.8690626044
 H          3.9135772384        1.4120581377       -0.8084886147
 H          3.6426533365        2.7964499077        0.2760323575
 H          4.0567865773       -0.9044578473        0.4437227850
 H          4.0689147435       -0.7553004600        2.2189864868
 H          1.6460341013       -0.0444471274        2.1176778733
 H          1.9101680554       -1.6080381807        1.3621901667
 H          3.4919211363       -2.0273138560       -0.2934469561
 H         -0.2030077648        1.9819597042       -2.1885854314
 H         -1.1316086671        2.5603103157       -4.5778030496
 H          2.8199724883       -2.4935935604       -5.1004022135
 H         -0.1964178569        0.9052178080       -6.2371150617
 H         -0.3848572705        0.2256343330        0.9913882466
 H         -0.3879454619        0.7109852259       -0.7242620858
 H         -0.3554326758       -0.9844521115       -0.2865382045
 H          6.7202987459        2.4287042012        3.1970154179
 H          6.3963767232        2.5560791260        1.4407571423
 H          6.6314347949        0.9622571034        2.1457135562
  42
    -0.774743 !GC
 C          0.0000000000        0.0000000000        0.0000000000
 C          1.5286882282        0.0000000000        0.0000000000
 C          1.9884807634        1.4560082329        0.0000000000
 C          2.6995242759        1.8437391969        1.2970984881
 N          1.8993820246        1.4880177994        2.4524906809
 C          1.8083523255        0.0656619471        2.6481868707
 C          2.0177065264       -0.6421589463        1.3156192361
 S          2.0032428627        2.4497753810        3.8007579153
 O          2.1718378381        1.5987567588        4.9650346053
 O          3.0171464881        3.4685357942        3.6044862561
 C          0.4025995820        3.2479088621        3.8667091600
 N          2.0332740465       -0.6974647216       -1.1828338788
 C          3.1280231411       -1.5121005193       -1.2313615962
 N          3.3557963144       -2.0429519657       -2.3928756066
 C          2.3619856726       -1.5590644606       -3.2055567645
 C          1.5351232517       -0.6691676825       -2.4693888893
 C          0.5536188278        0.0334719553       -3.1907929791
 C         -0.3926726554        1.0832698940       -3.0137064727
 C         -1.0084233089        1.2761658443       -4.2166662081
 N         -0.5092917156        0.4155102158       -5.1436378243
 C          0.4562257138       -0.3427493523       -4.5643359369
 N          1.1843938480       -1.2402803489       -5.2331397673
 C          2.1435164196       -1.8317367549       -4.5587175877
 H          2.6102836399        1.6718643434       -0.8662756292
 H          1.0853016065        2.0626090717       -0.0912787093
 H          3.6893322838        1.3715551346        1.3715669662
 H          2.8403729553        2.9265529040        1.3261926650
 H          2.5689105417       -0.2718810575        3.3647374821
 H          0.8324353509       -0.1464207674        3.0773145980
 H          1.5815800625       -1.6391090683        1.3750160044
 H          3.0903107303       -0.7169602745        1.1575941198
 H          3.7805125067       -1.6683380632       -0.3987834775
 H         -0.6073293512        1.6703975079       -2.1412291944
 H         -1.7734665265        1.9845874144       -4.4636687220
 H          2.7634909701       -2.5345213461       -5.0936400485
 H         -0.7778205062        0.3527137321       -6.1114468762
 H         -0.3875317509        0.3545574735        0.9494891407
 H         -0.3799904145        0.6166774301       -0.8097477595
 H         -0.3701543738       -1.0057750756       -0.1589971910
 H         -0.3413757704        2.4886211329        4.0590450369
 H          0.2499058758        3.7327805312        2.9131446840
 H          0.4361947866        3.9720228711        4.6696112445
  42
    -0.756261 !GC
 C          0.0000000000        0.0000000000        0.0000000000
 C          1.5287190126        0.0000000000        0.0000000000
 C          1.9890390401        1.4558833649        0.0000000000
 C          2.7012761386        1.8425876296        1.2968328092
 N          1.9010567803        1.4873274604        2.4521476118
 C          1.8083477858        0.0651611412        2.6479543210
 C          2.0170917151       -0.6430530918        1.3155391757
 S          1.9988942165        2.4493729093        3.8004047523
 O          2.1469136428        1.5979525748        4.9671776999
 O          3.0230943245        3.4599212449        3.6149172007
 C          0.4038830745        3.2598074806        3.8474958192
 N          2.0333269941       -0.6973481450       -1.1829068877
 C          3.1296001188       -1.5099849605       -1.2314329873
 N          3.3578471177       -2.0411526299       -2.3927370151
 C          2.3628810703       -1.5594230986       -3.2052804931
 C          1.5346919200       -0.6705874275       -2.4693074301
 C          0.5516903947        0.0298016604       -3.1908478043
 C         -0.3958810237        1.0784686054       -3.0142622842
 C         -1.0129610648        1.2690261097       -4.2169071795
 N         -0.5132771691        0.4081303012       -5.1433773258
 C          0.4537161516       -0.3482036577       -4.5639211797
 N          1.1830855956       -1.2450805547       -5.2323472696
 C          2.1440717615       -1.8337255518       -4.5580892906
 H          2.6101690051        1.6718333184       -0.8667028751
 H          1.0859881875        2.0627916194       -0.0902819302
 H          3.6906271882        1.3693430439        1.3704730866
 H          2.8433383611        2.9252147181        1.3260335672
 H          2.5684702979       -0.2733719431        3.3644715698
 H          0.8322355004       -0.1455976855        3.0773091926
 H          1.5802785454       -1.6397137795        1.3748210636
 H          3.0896269938       -0.7186646286        1.1576331693
 H          3.7827658439       -1.6644542476       -0.3990569047
 H         -0.6103755582        1.6666838081       -2.1424760988
 H         -1.7793013212        1.9760138949       -4.4639750965
 H          2.7648032467       -2.5361467485       -5.0926467428
 H         -0.7822755155        0.3439178503       -6.1109682925
 H         -0.3941500502       -0.9948977092       -0.1796716912
 H         -0.3916720389        0.3955155492        0.9301678833
 H         -0.3517173962        0.6344530593       -0.8081404684
 H         -0.3489051830        2.5042969403        4.0186408116
 H          0.2713913857        3.7553907140        2.8965749998
 H          0.4289366628        3.9753113519        4.6581595864
  42
    -0.727789 !GC
 C          0.0000000000        0.0000000000        0.0000000000
 C          1.5336912024        0.0000000000        0.0000000000
 C          1.9164623996        1.4893217435        0.0000000000
 C          3.4257110086        1.7390709596        0.1057555635
 N          4.0288069516        1.0187345584        1.2050631305
 C          3.6332300640       -0.3688148128        1.3005929939
 C          2.1162067013       -0.5425254960        1.2712216258
 S          4.5056245858        1.8612015847        2.5474356566
 O          3.9987079022        3.2195273672        2.4934035103
 O          4.1859084241        1.1093279321        3.7467146371
 C          6.2848885214        1.8986450154        2.3547864656
 N          2.0272220041       -0.7207652776       -1.1713061508
 C          2.9681612508       -1.7102180760       -1.1694661127
 N          3.2074903418       -2.2371063105       -2.3293794831
 C          2.3924438483       -1.5582385645       -3.1988284501
 C          1.6545012296       -0.5747757642       -2.4897455036
 C          0.8308801665        0.2750159127       -3.2473793699
 C         -0.0021470351        1.4171622784       -3.0812548007
 C         -0.4930285290        1.7388824968       -4.3130793277
 N         -0.0207843370        0.8705873848       -5.2484695692
 C          0.7997846690       -0.0249923104       -4.6411402732
 N          1.4577843651       -0.9831282877       -5.2987538503
 C          2.2587604706       -1.7357409938       -4.5780098300
 H          1.5546843560        2.0111571747       -0.8830376759
 H          1.4137053656        1.9181585693        0.8718556171
 H          3.9122132425        1.4030993165       -0.8141995711
 H          3.6491562773        2.7932874990        0.2648806016
 H          4.0598167643       -0.9083121182        0.4483873580
 H          4.0692302767       -0.7511310462        2.2229444550
 H          1.6481654187       -0.0408345156        2.1178444404
 H          1.9110680745       -1.6048274290        1.3632226883
 H          3.5012890872       -2.0175520717       -0.2953295622
 H         -0.2110528279        1.9753273218       -2.1903868455
 H         -1.1519867683        2.5412518734       -4.5776644091
 H          2.8137339999       -2.5015046727       -5.0981460729
 H         -0.2173113916        0.8836996909       -6.2350284357
 H         -0.3698374779        0.7473477391       -0.7010758094
 H         -0.4059793781       -0.9717838504       -0.2566921799
 H         -0.3522278820        0.2662796750        0.9916254723
 H          6.6454165837        2.4164689032        3.2332729497
 H          6.4982418755        2.4899372604        1.4760407950
 H          6.6784508657        0.8937883797        2.3030146156
  42
    -0.726082 !GC
 C          0.0000000000        0.0000000000        0.0000000000
 C          1.5336986462        0.0000000000        0.0000000000
 C          1.9159970682        1.4893806490        0.0000000000
 C          3.4251951482        1.7392147099        0.1071434319
 N          4.0270612671        1.0173351671        1.2061746323
 C          3.6311824184       -0.3702096478        1.2997960798
 C          2.1142942296       -0.5445713946        1.2708532495
 S          4.5013778044        1.8614216310        2.5484533868
 O          3.9737561471        3.2122765931        2.5035988019
 O          4.2019786036        1.1003556033        3.7471523585
 C          6.2781354218        1.9284760524        2.3412247892
 N          2.0275410671       -0.7209460390       -1.1710718807
 C          2.9672519426       -1.7115267948       -1.1684097645
 N          3.2063899070       -2.2392266253       -2.3279824166
 C          2.3927178039       -1.5595385854       -3.1981153617
 C          1.6560930777       -0.5744233110       -2.4898042627
 C          0.8340323535        0.2763299207       -3.2480543189
 C          0.0022560187        1.4194880838       -3.0827727704
 C         -0.4868526744        1.7422182382       -4.3150675581
 N         -0.0149915269        0.8732559828       -5.2500612305
 C          0.8035019854       -0.0237940816       -4.6418730781
 N          1.4607169371       -0.9829680722       -5.2989614292
 C          2.2592503631       -1.7375488934       -4.5772607785
 H          1.5548973643        2.0101242397       -0.8838918732
 H          1.4119413983        1.9183454640        0.8711020263
 H          3.9129525952        1.4049556132       -0.8128113781
 H          3.6483166963        2.7931818675        0.2681707216
 H          4.0569833926       -0.9084128911        0.4463940433
 H          4.0677436346       -0.7538162575        2.2213313004
 H          1.6464900417       -0.0428144084        2.1176009460
 H          1.9099803120       -1.6070045091        1.3637053535
 H          3.4986285814       -2.0200511787       -0.2936302025
 H         -0.2067411844        1.9778424327       -2.1921274845
 H         -1.1439329444        2.5459384108       -4.5803159755
 H          2.8150741500       -2.5027905034       -5.0971107845
 H         -0.2102916266        0.8870739947       -6.2369302353
 H         -0.3695103127        0.7495852771       -0.6988430381
 H         -0.4058876723       -0.9709758337       -0.2598893913
 H         -0.3526379282        0.2630633240        0.9923656875
 H          6.4786504591        2.5041068889        1.4490523551
 H          6.6263018013        0.9100116265        2.2493970246
 H          6.6930592681        2.4075261062        3.2175928389
  42
    -0.722631 !GC
 C          0.0000000000        0.0000000000        0.0000000000
 C          1.5298616952        0.0000000000        0.0000000000
 C          2.1304201301        1.4177106138        0.0000000000
 C          1.8718198846        2.0946612579        1.3458022397
 N          2.2017744242        1.2362829195        2.4617915744
 C          1.6306379520       -0.0928541277        2.4057329335
 C          1.9928049401       -0.8396337874        1.1179042822
 S          3.6864997581        1.4301602568        3.1722145575
 O          3.4790140322        1.3763333791        4.5998856598
 O          4.7041403235        0.5321513616        2.6388073714
 C          4.0978428732        3.1207715737        2.7494558074
 N          2.0214008372       -0.6444329429       -1.2208418631
 C          3.0270676296       -0.1823712744       -2.0212965286
 N          3.2388340890       -0.8855304737       -3.0893123764
 C          2.3397705741       -1.9187902198       -3.0147693470
 C          1.5833786785       -1.8059987463       -1.8174126662
 C          0.7074182946       -2.8608078456       -1.5124648178
 C         -0.1320449670       -3.3076636797       -0.4539523511
 C         -0.6810161182       -4.4925196401       -0.8496864942
 N         -0.2395489060       -4.8227356326       -2.0941069564
 C          0.6239107287       -3.8653048240       -2.5215439198
 N          1.2831616853       -3.9324119714       -3.6810893458
 C          2.1486594780       -2.9707626477       -3.9137202354
 H          3.2085616304        1.3542148935       -0.1181078581
 H          1.7160458646        2.0171429071       -0.8105844673
 H          2.5027729367        2.9810300583        1.4136178749
 H          0.8269309594        2.3943657084        1.4265448599
 H          2.0211797724       -0.6269207434        3.2701677999
 H          0.5474538529        0.0201713728        2.5163111289
 H          1.4824514464       -1.8049569034        1.1234126712
 H          3.0648798660       -1.0530655598        1.1001088141
 H          3.6288340049        0.6673019127       -1.7787732823
 H         -0.3008788326       -2.8627322555        0.5066713338
 H         -1.3600998561       -5.1230292750       -0.3116093509
 H          2.7146345660       -3.0307123800       -4.8307175213
 H         -0.4743916587       -5.6510059238       -2.6148113446
 H         -0.3851781708       -0.9985894543        0.1878401331
 H         -0.3790307962        0.6925611952        0.7466489585
 H         -0.3696495948        0.3148335238       -0.9691477523
 H          4.3654466764        3.6612010181        3.6443416465
 H          3.2062982713        3.5235501775        2.2873400711
 H          4.9003973322        3.0922675880        2.0248502402
  42
    -0.717456 !GC
 C          0.0000000000        0.0000000000        0.0000000000
 C          1.5286838124        0.0000000000        0.0000000000
 C          1.9896228597        1.4558545107        0.0000000000
 C          2.6969489896        1.8440878378        1.2991533950
 N          1.8941999651        1.4881663593        2.4526032115
 C          1.8077686911        0.0660529174        2.6531589310
 C          2.0141762737       -0.6456201470        1.3224256025
 S          1.9889941831        2.4519095652        3.8000202578
 O          2.1767238320        1.6054952955        4.9647928448
 O          2.9859331144        3.4859109502        3.5974591689
 C          0.3760116205        3.2238442485        3.8723819976
 N          2.0336726123       -0.6973563045       -1.1827035047
 C          3.1331636314       -1.5055233926       -1.2327328101
 N          3.3647550133       -2.0319955691       -2.3956318653
 C          2.3687551972       -1.5514146147       -3.2075806554
 C          1.5364803916       -0.6686377810       -2.4695187330
 C          0.5513869225        0.0298647827       -3.1898856198
 C         -0.4003711585        1.0744049627       -3.0110857214
 C         -1.0170921378        1.2660690796       -4.2137406667
 N         -0.5131207562        0.4099466030       -5.1422865556
 C          0.4566441723       -0.3440116662       -4.5642868339
 N          1.1905355320       -1.2355038755       -5.2349067176
 C          2.1529058749       -1.8226859191       -4.5613420524
 H          2.6137398081        1.6705368249       -0.8649237065
 H          1.0873220672        2.0631846904       -0.0944525300
 H          3.6867611185        1.3722938616        1.3766502225
 H          2.8376032490        2.9269059068        1.3282820974
 H          2.5720626983       -0.2678577884        3.3674085615
 H          0.8341384424       -0.1468449288        3.0869488342
 H          1.5766295534       -1.6417572960        1.3846398611
 H          3.0864795678       -0.7223335263        1.1632953195
 H          3.7859964685       -1.6604837286       -0.4001888103
 H         -0.6178248426        1.6592473480       -2.1377291190
 H         -1.7859299108        1.9708996556       -4.4594740118
 H          2.7778700500       -2.5201165922       -5.0974941110
 H         -0.7801794187        0.3483147523       -6.1104894847
 H         -0.3979297482        0.6390691541       -0.7797453412
 H         -0.3859138396       -1.0077665450       -0.1223978233
 H         -0.3540576946        0.3758855235        0.9540005916
 H         -0.3567407963        2.4514749141        4.0549992403
 H          0.2174098352        3.7168076480        2.9239757001
 H          0.3976863851        3.9391529712        4.6835365785
  42
    -0.710481 !GC
 C          0.0000000000        0.0000000000        0.0000000000
 C          1.5296251346        0.0000000000        0.0000000000
 C          2.0982575612        1.4459005949        0.0000000000
 C          1.8742181449        2.1482689593        1.3436150341
 N          2.2598733485        1.3488600821        2.4883629123
 C          1.7005474720        0.0162293062        2.5246454315
 C          2.0068023497       -0.7529634756        1.2403808351
 S          3.7769534328        1.6095096744        3.1030744917
 O          3.8883000558        0.7795545644        4.2817983582
 O          4.8407285091        1.4681752611        2.1188819687
 C          3.6990711728        3.3236129692        3.6158168164
 N          2.0218456158       -0.6163022331       -1.2351104017
 C          2.9529922962       -0.0827469007       -2.0800345659
 N          3.2286723007       -0.8114729074       -3.1158710173
 C          2.4327714181       -1.9213198532       -2.9875173143
 C          1.6585659696       -1.8174249610       -1.8027365542
 C          0.7617579925       -2.8632045101       -1.5292706920
 C         -0.1987611608       -3.2460724204       -0.5517691539
 C         -0.7261067743       -4.4389814841       -0.9526105605
 N         -0.1608921782       -4.8319295005       -2.1267172095
 C          0.7532024600       -3.9016971604       -2.5064592428
 N          1.4847458317       -3.9988322326       -3.6196944487
 C          2.3200101593       -3.0111927083       -3.8538019583
 H          3.1662095176        1.4191410437       -0.2191189399
 H          1.6412309461        2.0489297119       -0.7862627197
 H          2.4691309307        3.0600482338        1.3646494101
 H          0.8191630430        2.4077538781        1.4625499598
 H          2.1641810546       -0.4842968984        3.3744775221
 H          0.6264359367        0.0999893960        2.7011701749
 H          1.5140436197       -1.7258634264        1.2580472481
 H          3.0857979471       -0.8911269412        1.1871529999
 H          3.4208018714        0.8646607628       -1.9171814588
 H         -0.4684716544       -2.7498268070        0.3592873006
 H         -1.4748629772       -5.0316824387       -0.4664534346
 H          2.9166275741       -3.0748442950       -4.7508492345
 H         -0.3617852026       -5.6751551949       -2.6377252634
 H         -0.3909575347       -1.0083161385       -0.1235804730
 H         -0.3850664681        0.4216985021        0.9245715509
 H         -0.3568387581        0.6022943867       -0.8253006297
 H          4.6576978724        3.5892772014        4.0345506842
 H          2.9066017654        3.3944819531        4.3491267729
 H          3.4658398474        3.9181148784        2.7427545019
  42
    -0.709708 !GC
 C          0.0000000000        0.0000000000        0.0000000000
 C          1.5295180199        0.0000000000        0.0000000000
 C          2.0982130225        1.4459463467        0.0000000000
 C          1.8800692254        2.1473676699        1.3450592490
 N          2.2680607149        1.3464792628        2.4880197987
 C          1.7044352807        0.0157049177        2.5251354348
 C          2.0057577686       -0.7541657541        1.2401646724
 S          3.7884271765        1.6017289450        3.0960084329
 O          3.9002478009        0.7735236042        4.2757996021
 O          4.8480484895        1.4541506563        2.1084247602
 C          3.7201043363        3.3167596514        3.6062892190
 N          2.0224487594       -0.6155119226       -1.2352739268
 C          2.9481048938       -0.0782539166       -2.0837829758
 N          3.2224730350       -0.8056365819       -3.1209046580
 C          2.4316145752       -1.9187495492       -2.9894725724
 C          1.6625356467       -1.8185239396       -1.8011506033
 C          0.7731129747       -2.8693147828       -1.5228125085
 C         -0.1773519346       -3.2590932407       -0.5382372832
 C         -0.6997937329       -4.4552865582       -0.9357885292
 N         -0.1412654989       -4.8435882899       -2.1146236428
 C          0.7644606967       -3.9076237158       -2.5002168629
 N          1.4889350085       -3.9997143854       -3.6184756697
 C          2.3179939312       -3.0078744702       -3.8567369934
 H          3.1650317215        1.4203064045       -0.2249113887
 H          1.6365399330        2.0498109147       -0.7828514102
 H          2.4765698780        3.0581099633        1.3646400900
 H          0.8257857507        2.4082987947        1.4675454112
 H          2.1680406880       -0.4868061626        3.3738441320
 H          0.6309881544        0.1031145888        2.7038870089
 H          1.5093273301       -1.7251344222        1.2589398752
 H          3.0841567124       -0.8961910766        1.1853532351
 H          3.4130503703        0.8708123940       -1.9226052258
 H         -0.4434207438       -2.7654492537        0.3753001248
 H         -1.4408135031       -5.0533400914       -0.4443214368
 H          2.9084410573       -3.0673555845       -4.7581405258
 H         -0.3401930787       -5.6880532980       -2.6243119977
 H         -0.3849503719        0.4012100463        0.9336858070
 H         -0.3681852624        0.6016061740       -0.8312467260
 H         -0.3796160014       -1.0046452452       -0.1185099818
 H          4.6791556546        3.5769643460        4.0272748741
 H          2.9262913615        3.3934435946        4.3374653329
 H          3.4927888183        3.9120404138        2.7322323987
  42
    -0.708699 !GC
 C          0.0000000000        0.0000000000        0.0000000000
 C          1.5337402809        0.0000000000        0.0000000000
 C          1.9149421495        1.4896775734        0.0000000000
 C          3.4235473229        1.7410769155        0.1120553068
 N          4.0241081861        1.0145956405        1.2087647174
 C          3.6273863737       -0.3731610363        1.2956979537
 C          2.1103706756       -0.5465628905        1.2680184418
 S          4.4935162106        1.8530888544        2.5564261074
 O          3.9187404845        3.1853297850        2.5424530079
 O          4.2419317972        1.0636519994        3.7475334310
 C          6.2619839595        1.9915357253        2.3161561415
 N          2.0272912041       -0.7207531778       -1.1712771027
 C          2.9618005390       -1.7162955126       -1.1688973835
 N          3.2030673326       -2.2402078571       -2.3297735347
 C          2.3961151288       -1.5530487036       -3.2002330971
 C          1.6608554401       -0.5678389832       -2.4906294223
 C          0.8441321008        0.2884555861       -3.2483423501
 C          0.0132132837        1.4318859795       -3.0806611283
 C         -0.4688881262        1.7624248674       -4.3136486496
 N          0.0059936382        0.8977824294       -5.2509879696
 C          0.8192924743       -0.0044590619       -4.6437135848
 N          1.4767781282       -0.9621922278       -5.3024711474
 C          2.2687687375       -1.7235315566       -4.5807873040
 H          1.5561862761        2.0092620130       -0.8855190367
 H          1.4079533063        1.9192720457        0.8690810129
 H          3.9143967679        1.4125951812       -0.8083100734
 H          3.6441693852        2.7946256683        0.2791387160
 H          4.0512449392       -0.9071733015        0.4387303581
 H          4.0654137415       -0.7615682219        2.2145242683
 H          1.6438150490       -0.0454793041        2.1158196768
 H          1.9051288691       -1.6090805170        1.3598375110
 H          3.4879182621       -2.0313134495       -0.2932193750
 H         -0.2008106936        1.9847996085       -2.1878651911
 H         -1.1234925085        2.5686120877       -4.5776309647
 H          2.8229109243       -2.4892888914       -5.1017560099
 H         -0.1845607033        0.9173117947       -6.2386512052
 H         -0.3747885979        0.7389361113       -0.7053666192
 H         -0.3697543443       -0.9870156197       -0.2757888726
 H         -0.3837580330        0.2419260683        0.9814352341
 H          6.4234494526        2.6336298792        1.4624833101
 H          6.6445982213        0.9950114394        2.1481889521
 H          6.6765933168        2.4233974474        3.2168913009
  42
    -0.703495 !GC
 C          0.0000000000        0.0000000000        0.0000000000
 C          1.5337187066        0.0000000000        0.0000000000
 C          1.9149012975        1.4897345985        0.0000000000
 C          3.4234136126        1.7422032080        0.1099545272
 N          4.0263788422        1.0203895141        1.2082820366
 C          3.6329066514       -0.3681093624        1.2998798128
 C          2.1160047639       -0.5432495512        1.2709692862
 S          4.4982936407        1.8569375365        2.5561962176
 O          3.9657081658        3.2061021976        2.5206994828
 O          4.2018937348        1.0865483407        3.7496157360
 C          6.2747063135        1.9326575613        2.3488626271
 N          2.0272404728       -0.7206870589       -1.1713404593
 C          2.9649452656       -1.7131614782       -1.1698403805
 N          3.2054335956       -2.2376776560       -2.3306152457
 C          2.3942737684       -1.5543041496       -3.2001206521
 C          1.6575685442       -0.5705778143       -2.4901628673
 C          0.8368313490        0.2825903602       -3.2471036236
 C          0.0042353935        1.4248044043       -3.0792696356
 C         -0.4825425904        1.7514786760       -4.3114312757
 N         -0.0092463311        0.8854427156       -5.2482963539
 C          0.8083025578       -0.0133707613       -4.6417484994
 N          1.4663296676       -0.9705635200       -5.3006194040
 C          2.2636672921       -1.7272861304       -4.5801628671
 H          1.5550313024        2.0104298248       -0.8845159016
 H          1.4090917586        1.9192347001        0.8698200618
 H          3.9128446500        1.4101972329       -0.8098853235
 H          3.6435046195        2.7965609011        0.2727440730
 H          4.0596088265       -0.9043669373        0.4457189519
 H          4.0703860833       -0.7526244776        2.2206114951
 H          1.6477002417       -0.0424550359        2.1179275256
 H          1.9112345867       -1.6058506745        1.3617153504
 H          3.4945923713       -2.0248235065       -0.2951346638
 H         -0.2073218406        1.9794467610       -2.1868522661
 H         -1.1396765551        2.5556350268       -4.5751750400
 H          2.8186268220       -2.4923034869       -5.1014366875
 H         -0.2034539819        0.9018550574       -6.2352329142
 H         -0.3851820006        0.2286638028        0.9905768134
 H         -0.3880381299        0.7085780803       -0.7265626972
 H         -0.3550230843       -0.9854781000       -0.2834060270
 H          6.6336672524        0.9161679073        2.2799212911
 H          6.6389768467        2.3819583924        3.2629490341
 H          6.5242324047        2.5362066711        1.4883376267
  42
    -0.703108 !GC
 C          0.0000000000        0.0000000000        0.0000000000
 C          1.5295981351        0.0000000000        0.0000000000
 C          2.0106814450        1.4462819375        0.0000000000
 C          1.7049860205        2.1448129102        1.3239938289
 N          2.2700241138        1.4235685006        2.4421959621
 C          1.8841624161        0.0303024067        2.5335578301
 C          2.1021356590       -0.7561210948        1.2362719131
 S          3.7938234315        1.8105594004        2.9680537963
 O          4.8544571215        1.0700166848        2.2992142584
 O          3.8898044518        3.2517916637        2.9069253994
 C          3.7482936149        1.3135611882        4.6879153228
 N          2.0216297928       -0.7323540467       -1.1700940117
 C          2.9464793865       -1.7373951318       -1.1552165286
 N          3.2269866189       -2.2358114135       -2.3183227005
 C          2.4431611666       -1.5357217817       -3.1998086205
 C          1.6706082062       -0.5777447092       -2.4929086462
 C          0.7855721024        0.2127233641       -3.2443612321
 C         -0.1715028445        1.2497394971       -3.0615040728
 C         -0.6844985920        1.5441253705       -4.2911371103
 N         -0.1141570430        0.7525991016       -5.2400751476
 C          0.7890762446       -0.0672031135       -4.6425588272
 N          1.5209708889       -0.9655543699       -5.3066717824
 C          2.3439873735       -1.6925675652       -4.5841756478
 H          3.0896239709        1.4733096612       -0.1460310252
 H          1.5166385229        1.9663947449       -0.8216112539
 H          2.1649979870        3.1327664342        1.3366947593
 H          0.6309521544        2.2483190735        1.4901496071
 H          2.4814949558       -0.4254412779        3.3216677453
 H          0.8300209540       -0.0010969693        2.8208726311
 H          1.6397194447       -1.7383704515        1.3460385250
 H          3.1688317835       -0.9353086484        1.0973540025
 H          3.4062661441       -2.1006591497       -0.2610456713
 H         -0.4490491193        1.7602009386       -2.1606616832
 H         -1.4264528611        2.2746500037       -4.5442643200
 H          2.9392942817       -2.4256374331       -5.1066376901
 H         -0.3062851732        0.7652053085       -6.2276102440
 H         -0.4014533417       -1.0039223696        0.0655594680
 H         -0.3687266942        0.5949465961        0.8357000680
 H         -0.3626077017        0.4514462812       -0.9163469868
 H          2.9802023875        1.8990600687        5.1723657259
 H          4.7254460516        1.5294291729        5.0991986236
 H          3.5313779174        0.2564841007        4.7319947058
  42
    -0.700334 !GC
 C          0.0000000000        0.0000000000        0.0000000000
 C          1.5337127768        0.0000000000        0.0000000000
 C          1.9165031905        1.4892646979        0.0000000000
 C          3.4258488676        1.7379428131        0.1078558421
 N          4.0265252949        1.0129348512        1.2055589908
 C          3.6276831014       -0.3738753588        1.2964280252
 C          2.1105443711       -0.5458219871        1.2682829487
 S          4.5008599884        1.8573455281        2.5476708024
 O          3.9512928044        3.1997760173        2.5150380497
 O          4.2256027498        1.0855461563        3.7451686143
 C          6.2737368147        1.9572786608        2.3213311268
 N          2.0272727356       -0.7208313932       -1.1712427895
 C          2.9650262632       -1.7133623299       -1.1685124329
 N          3.2051251969       -2.2396434277       -2.3285324605
 C          2.3942713776       -1.5569772604       -3.1989500858
 C          1.6577747247       -0.5720272121       -2.4902235986
 C          0.8381585875        0.2809001095       -3.2486380587
 C          0.0068129363        1.4242654115       -3.0826586969
 C         -0.4794087786        1.7498625258       -4.3153305626
 N         -0.0055916122        0.8829648751       -5.2512109319
 C          0.8107360468       -0.0160526540       -4.6431429025
 N          1.4681884270       -0.9747288414       -5.3006482743
 C          2.2638328878       -1.7319704330       -4.5786539071
 H          1.5558350892        2.0099890280       -0.8840448078
 H          1.4125645336        1.9181976957        0.8711202714
 H          3.9137713787        1.4054893613       -0.8126412767
 H          3.6498391285        2.7913603444        0.2712763028
 H          4.0514221461       -0.9111426923        0.4414087455
 H          4.0642229606       -0.7600917284        2.2168881972
 H          1.6442579060       -0.0438320341        2.1157456384
 H          1.9049166198       -1.6080352797        1.3613603405
 H          3.4946421400       -2.0240643935       -0.2933871838
 H         -0.2045450751        1.9806942993       -2.1913892646
 H         -1.1358405001        2.5542688805       -4.5801584137
 H          2.8179845923       -2.4984746825       -5.0984872328
 H         -0.1984784302        0.8992023778       -6.2385130669
 H         -0.3593450953       -0.9888064817       -0.2865194456
 H         -0.3879289597        0.2434806197        0.9857561362
 H         -0.3810139058        0.7167167650       -0.7147861639
 H          6.5917493582        0.9347468502        2.1683152965
 H          6.7312896966        2.3951004566        3.1953160003
 H          6.4545413347        2.5179950780        1.4141889894
  42
    -0.700332 !GC
 C          0.0000000000        0.0000000000        0.0000000000
 C          1.5298434012        0.0000000000        0.0000000000
 C          2.0996556400        1.4454961291        0.0000000000
 C          1.8793768286        2.1473814572        1.3444985984
 N          2.2618115705        1.3460189940        2.4890747996
 C          1.6972843338        0.0155717785        2.5243643953
 C          2.0058471184       -0.7536397054        1.2406880365
 S          3.7807712968        1.5986938508        3.1030771427
 O          3.8801804104        0.7820315978        4.2919543052
 O          4.8458310165        1.4345874768        2.1236920138
 C          3.7183876171        3.3193853200        3.5952200791
 N          2.0216833168       -0.6152738306       -1.2357148613
 C          2.9497993169       -0.0796702861       -2.0827187375
 N          3.2401152689       -0.8171876506       -3.1082361005
 C          2.4591489685       -1.9362541811       -2.9696144245
 C          1.6788981115       -1.8290632938       -1.7890155188
 C          0.7920682679       -2.8816763656       -1.5093131963
 C         -0.1769415596       -3.2600852471       -0.5384052310
 C         -0.6826950313       -4.4669332958       -0.9252424895
 N         -0.0969231641       -4.8720946660       -2.0850165157
 C          0.8095703364       -3.9362772955       -2.4689139784
 N          1.5542144751       -4.0410240847       -3.5726127005
 C          2.3751428009       -3.0437331604       -3.8161441550
 H          3.1669494830        1.4178747997       -0.2222000345
 H          1.6408531544        2.0494467918       -0.7845651821
 H          2.4777277800        3.0569166050        1.3657282169
 H          0.8253219406        2.4108745206        1.4638462108
 H          2.1563946280       -0.4863663909        3.3758851820
 H          0.6229770230        0.1033965984        2.6975844588
 H          1.5150728718       -1.7275686107        1.2576166983
 H          3.0851486154       -0.8896842405        1.1896105507
 H          3.4044498369        0.8756335265       -1.9290909909
 H         -0.4679612732       -2.7501189331        0.3585472449
 H         -1.4298880052       -5.0612614839       -0.4386736875
 H          2.9813419224       -3.1127392105       -4.7063961471
 H         -0.2811177851       -5.7255718830       -2.5848786401
 H         -0.3854622822        0.4083723030        0.9303065359
 H         -0.3694079623        0.5937964114       -0.8361994847
 H         -0.3786816966       -1.0059728771       -0.1101044828
 H          4.6904717118        3.5772301725        3.9904637747
 H          2.9356935246        3.4280730022        4.3298586577
 H          3.5021480655        3.8970678597        2.7050044357
  42
    -0.698432 !GC
 C          0.0000000000        0.0000000000        0.0000000000
 C          1.5337867099        0.0000000000        0.0000000000
 C          1.9150419562        1.4896672993        0.0000000000
 C          3.4234803854        1.7413695597        0.1130013929
 N          4.0224258643        1.0165064768        1.2116877694
 C          3.6268685047       -0.3715262373        1.2985633353
 C          2.1101207005       -0.5468018996        1.2676882199
 S          4.4885906748        1.8585405214        2.5581929582
 O          3.9251349096        3.1953480127        2.5327559651
 O          4.2216949645        1.0776759600        3.7516469215
 C          6.2601108663        1.9795430928        2.3314627267
 N          2.0270798557       -0.7206093657       -1.1714776284
 C          2.9614320231       -1.7163135499       -1.1693168293
 N          3.2052118201       -2.2376669592       -2.3308007069
 C          2.4003756525       -1.5483360841       -3.2015153216
 C          1.6632557246       -0.5649105944       -2.4912643897
 C          0.8480008494        0.2928986112       -3.2488623483
 C          0.0160664892        1.4354743444       -3.0803883499
 C         -0.4631675424        1.7688479263       -4.3137483231
 N          0.0150913636        0.9072710859       -5.2522132723
 C          0.8275190696        0.0040794596       -4.6451756758
 N          1.4868562416       -0.9518252875       -5.3047092949
 C          2.2764459673       -1.7154343624       -4.5828065216
 H          1.5566338316        2.0088871783       -0.8858754752
 H          1.4075012590        1.9191015026        0.8688018591
 H          3.9150548134        1.4111577972       -0.8063535221
 H          3.6442773582        2.7951587367        0.2784264084
 H          4.0531499681       -0.9054932491        0.4427362406
 H          4.0630660821       -0.7589912919        2.2186755607
 H          1.6414394734       -0.0478336033        2.1155746760
 H          1.9066124030       -1.6097506665        1.3576648064
 H          3.4855291661       -2.0334748733       -0.2932040407
 H         -0.2007540024        1.9858379207       -2.1867567724
 H         -1.1180594434        2.5749466801       -4.5772462578
 H          2.8318954374       -2.4799224549       -5.1042474471
 H         -0.1730733079        0.9291246652       -6.2402956531
 H         -0.3747110966        0.7376834610       -0.7067751530
 H         -0.3697122327       -0.9875463255       -0.2740556716
 H         -0.3840259902        0.2438119275        0.9809039056
 H          6.6740742138        2.3773079064        3.2466941607
 H          6.4804741886        2.5699102702        1.4552323563
 H          6.5971173740        0.9574819002        2.2112629699
  42
    -0.690509 !GC
 C          0.0000000000        0.0000000000        0.0000000000
 C          1.5295141088        0.0000000000        0.0000000000
 C          2.0106428673        1.4463097661        0.0000000000
 C          1.7080772250        2.1438689848        1.3252246698
 N          2.2763384664        1.4219490480        2.4414698531
 C          1.8881684081        0.0293310002        2.5334080052
 C          2.1022750995       -0.7569303948        1.2354205053
 S          3.8040877780        1.8053999873        2.9587613524
 O          4.8568484386        1.0487680229        2.2956688328
 O          3.9108840188        3.2449306757        2.8795114461
 C          3.7606288732        1.3295787546        4.6846670442
 N          2.0225086126       -0.7316737741       -1.1700787606
 C          2.9470317803       -1.7369909134       -1.1550704484
 N          3.2301742118       -2.2331314426       -2.3185302928
 C          2.4480366013       -1.5315138159       -3.2003688126
 C          1.6744477764       -0.5744697188       -2.4933330782
 C          0.7909842428        0.2175321728       -3.2449482352
 C         -0.1668329597        1.2538056242       -3.0618527493
 C         -0.6772903769        1.5506658655       -4.2919439612
 N         -0.1042304403        0.7617886117       -5.2415067756
 C          0.7976332934       -0.0593336862       -4.6437393058
 N          1.5312617394       -0.9559932261       -5.3081716166
 C          2.3523906567       -1.6848553023       -4.5853922326
 H          3.0892636841        1.4734874698       -0.1480310955
 H          1.5150558052        1.9668548799       -0.8204237410
 H          2.1676751756        3.1320069843        1.3369092799
 H          0.6345011387        2.2467984759        1.4944279749
 H          2.4862880636       -0.4276526642        3.3202343016
 H          0.8345598262       -0.0001226207        2.8228825559
 H          1.6379470109       -1.7382338921        1.3455818064
 H          3.1683808132       -0.9384187755        1.0949274664
 H          3.4047386854       -2.1020645530       -0.2606051916
 H         -0.4462205120        1.7625604346       -2.1605876136
 H         -1.4186760117        2.2817905220       -4.5450481693
 H          2.9491461685       -2.4162165622       -5.1085462800
 H         -0.2940202373        0.7767117277       -6.2294618433
 H         -0.3686598920       -1.0240339798        0.0614241516
 H         -0.3852163727        0.5729901532        0.8391098431
 H         -0.3789814392        0.4390052210       -0.9116698544
 H          2.9925525465        1.9205398124        5.1625446722
 H          4.7379235200        1.5506455464        5.0929926309
 H          3.5442011386        0.2728534648        4.7414164062
  42
    -0.689793 !GC
 C          0.0000000000        0.0000000000        0.0000000000
 C          1.5298078225        0.0000000000        0.0000000000
 C          2.0989718313        1.4457102728        0.0000000000
 C          1.8801626854        2.1469262759        1.3450723197
 N          2.2643559333        1.3450117744        2.4886912499
 C          1.6989075546        0.0150417988        2.5246169724
 C          2.0062721667       -0.7536997582        1.2404291254
 S          3.7843503012        1.5968428234        3.1007239681
 O          3.8775929625        0.7932357927        4.2988709066
 O          4.8501633942        1.4168813541        2.1249071630
 C          3.7294623047        3.3230533050        3.5739159374
 N          2.0221294783       -0.6146161171       -1.2358483792
 C          2.9506741137       -0.0786620600       -2.0821743086
 N          3.2367598384       -0.8129203670       -3.1112319807
 C          2.4527651380       -1.9302553586       -2.9755473485
 C          1.6744315528       -1.8250455699       -1.7934272282
 C          0.7859615874       -2.8766851214       -1.5152722102
 C         -0.1794554324       -3.2577806099       -0.5418340434
 C         -0.6904876489       -4.4610253266       -0.9329598014
 N         -0.1107689368       -4.8617981000       -2.0973168616
 C          0.7964878797       -3.9263803924       -2.4803306119
 N          1.5370873768       -4.0281001626       -3.5870276833
 C          2.3611107424       -3.0327588599       -3.8279554709
 H          3.1660667200        1.4186250726       -0.2231156696
 H          1.6392906233        2.0496769417       -0.7840207671
 H          2.4784049049        3.0565196605        1.3655439437
 H          0.8262251931        2.4101769351        1.4660874287
 H          2.1585368015       -0.4870568257        3.3757741056
 H          0.6248128198        0.1036151146        2.6985928308
 H          1.5150700008       -1.7273889337        1.2572572166
 H          3.0854828685       -0.8904993240        1.1889136244
 H          3.4087710738        0.8744666921       -1.9253701049
 H         -0.4642944586       -2.7523867551        0.3596790791
 H         -1.4369865923       -5.0559490252       -0.4460472077
 H          2.9632222964       -3.0990585236       -4.7211885246
 H         -0.2989132358       -5.7125370963       -2.6004444596
 H         -0.3914603004       -1.0087639959       -0.1172529828
 H         -0.3856289796        0.4278132032        0.9215172801
 H         -0.3565045489        0.5971431150       -0.8291686720
 H          4.7015715449        3.5800555930        3.9695332410
 H          2.9448125918        3.4445825546        4.3045001048
 H          3.5198598522        3.8913608796        2.6760631224
  42
    -0.688785 !GC
 C          0.0000000000        0.0000000000        0.0000000000
 C          1.5336958706        0.0000000000        0.0000000000
 C          1.9145544563        1.4896950551        0.0000000000
 C          3.4230784015        1.7416977880        0.1113892305
 N          4.0247293837        1.0168412440        1.2085378464
 C          3.6295202757       -0.3712632592        1.2972473031
 C          2.1125381407       -0.5452482697        1.2700838929
 S          4.4958861432        1.8537781585        2.5564559678
 O          3.9438370018        3.1954545076        2.5314974054
 O          4.2202981591        1.0740316315        3.7487808238
 C          6.2689689191        1.9580874626        2.3334208102
 N          2.0274392198       -0.7205924480       -1.1713262176
 C          2.9623489539       -1.7156771512       -1.1689804746
 N          3.2043733329       -2.2389985912       -2.3299686926
 C          2.3971749850       -1.5520904626       -3.2004261920
 C          1.6613889555       -0.5673252365       -2.4907980753
 C          0.8443938768        0.2889027441       -3.2483180775
 C          0.0129444417        1.4319742014       -3.0807245719
 C         -0.4683421704        1.7630650789       -4.3138609398
 N          0.0069137937        0.8985978338       -5.2511916095
 C          0.8199853807       -0.0037798209       -4.6437847805
 N          1.4780641677       -0.9610445233       -5.3026711400
 C          2.2700951301       -1.7223520244       -4.5809924912
 H          1.5550737553        2.0094999848       -0.8851520129
 H          1.4077664465        1.9191637051        0.8692344331
 H          3.9131363964        1.4118365781       -0.8088938849
 H          3.6435941452        2.7955499708        0.2768777127
 H          4.0544785221       -0.9061758375        0.4413356785
 H          4.0674580118       -0.7581299728        2.2167197893
 H          1.6460815677       -0.0440430096        2.1178330044
 H          1.9076786782       -1.6077444929        1.3619837569
 H          3.4879303458       -2.0310270838       -0.2931211658
 H         -0.2015506251        1.9842428261       -2.1876208636
 H         -1.1224915195        2.5695374454       -4.5781159817
 H          2.8255564027       -2.4870131163       -5.1021621478
 H         -0.1831755195        0.9182993820       -6.2389227202
 H         -0.4029498891       -0.9664133837       -0.2817572183
 H         -0.3596082519        0.2705075382        0.9932932924
 H         -0.3652878745        0.7501789122       -0.6922231532
 H          6.6396905547        0.9476801422        2.2385721231
 H          6.6372406564        2.3920888068        3.2533981755
 H          6.5014124610        2.5834225099        1.4835851341
  42
    -0.688616 !GC
 C          0.0000000000        0.0000000000        0.0000000000
 C          1.5337725793        0.0000000000        0.0000000000
 C          1.9145357117        1.4897827433        0.0000000000
 C          3.4228268028        1.7426398128        0.1122883858
 N          4.0229515558        1.0209039544        1.2123079892
 C          3.6303495464       -0.3678608800        1.3019434769
 C          2.1138580037       -0.5455426163        1.2702716363
 S          4.4891075650        1.8626095919        2.5589782760
 O          3.9475039445        3.2081323235        2.5213634290
 O          4.1979706878        1.0922203013        3.7536973117
 C          6.2648854588        1.9506761209        2.3511604127
 N          2.0273482014       -0.7207240887       -1.1713067863
 C          2.9636641806       -1.7144848775       -1.1692078544
 N          3.2064684776       -2.2372484539       -2.3302608840
 C          2.3987982113       -1.5508821513       -3.2007078393
 C          1.6615576583       -0.5672936402       -2.4908594961
 C          0.8438481820        0.2883514809       -3.2482988484
 C          0.0114904153        1.4307234629       -3.0805017386
 C         -0.4706489057        1.7612442364       -4.3135083341
 N          0.0056359930        0.8976091252       -5.2511249844
 C          0.8202364318       -0.0036250346       -4.6439636967
 N          1.4793258916       -0.9600239224       -5.3030999446
 C          2.2718184025       -1.7209840088       -4.5814708095
 H          1.5556957573        2.0090225053       -0.8857235344
 H          1.4068777239        1.9192475843        0.8687834837
 H          3.9142366697        1.4106221517       -0.8065282469
 H          3.6427627729        2.7969789051        0.2753191163
 H          4.0586863045       -0.9027668553        0.4477332023
 H          4.0665631434       -0.7527186398        2.2231362001
 H          1.6436662338       -0.0468052612        2.1174411283
 H          1.9116602547       -1.6087067836        1.3600272636
 H          3.4895373334       -2.0294793358       -0.2934262508
 H         -0.2029527964        1.9830045011       -2.1874562376
 H         -1.1261896927        2.5666635423       -4.5774157485
 H          2.8289374843       -2.4842092722       -5.1029222372
 H         -0.1849570544        0.9170538241       -6.2387967517
 H         -0.3847805523        0.2274774270        0.9910377254
 H         -0.3879043703        0.7097364333       -0.7255516824
 H         -0.3557032871       -0.9849524436       -0.2846150985
 H          6.6663377313        0.9597836528        2.2041429665
 H          6.6629634151        2.4641231430        3.2141835692
 H          6.4170168369        2.5701388271        1.4762754156
  42
    -0.685623 !GC
 C          0.0000000000        0.0000000000        0.0000000000
 C          1.5286540373        0.0000000000        0.0000000000
 C          1.9887246702        1.4561646350        0.0000000000
 C          2.6938084956        1.8462858779        1.2998142927
 N          1.8905858259        1.4886983302        2.4523118084
 C          1.8077658970        0.0665132449        2.6532819243
 C          2.0151279319       -0.6441094048        1.3220883500
 S          1.9770281451        2.4541750185        3.7986594997
 O          2.1630205047        1.6100353494        4.9652845100
 O          2.9714573520        3.4910709307        3.5986976696
 C          0.3613953259        3.2210099479        3.8638002701
 N          2.0334428164       -0.6974401924       -1.1827194514
 C          3.1309215540       -1.5082736804       -1.2328034756
 N          3.3626440897       -2.0332276378       -2.3963423029
 C          2.3687763258       -1.5488917600       -3.2086642808
 C          1.5376481964       -0.6655744467       -2.4700097541
 C          0.5546085792        0.0361020676       -3.1901257553
 C         -0.3961765172        1.0813892368       -3.0102405958
 C         -1.0105317475        1.2769857844       -4.2134905627
 N         -0.5063048107        0.4223115743       -5.1432322287
 C          0.4616089940       -0.3342059773       -4.5655728001
 N          1.1947630037       -1.2255581452       -5.2371213967
 C          2.1544968975       -1.8167129941       -4.5633050047
 H          2.6139323525        1.6705892904       -0.8642297508
 H          1.0861271780        2.0628003852       -0.0961983673
 H          3.6846023847        1.3767931145        1.3785661876
 H          2.8318985316        2.9294333614        1.3288509726
 H          2.5735488351       -0.2655216002        3.3668089426
 H          0.8351819661       -0.1490075410        3.0881515089
 H          1.5791739061       -1.6409653316        1.3840231100
 H          3.0875281322       -0.7188903684        1.1623306009
 H          3.7821624640       -1.6665707218       -0.3996623712
 H         -0.6148947363        1.6637680998       -2.1355446431
 H         -1.7780144153        1.9834416156       -4.4588057512
 H          2.7788758470       -2.5141416871       -5.1001197465
 H         -0.7716132546        0.3636728683       -6.1121046331
 H         -0.3797005241        0.3687470846        0.9486608779
 H         -0.3925927601        0.6220502940       -0.7989468874
 H         -0.3657186008       -1.0076312525       -0.1493730549
 H          0.3804813253        3.9162130169        4.6926091001
 H         -0.3859687683        2.4565323880        4.0202026333
 H          0.2229221914        3.7328168153        2.9225430018
  42
    -0.685465 !GC
 C          0.0000000000        0.0000000000        0.0000000000
 C          1.5283249971        0.0000000000        0.0000000000
 C          1.9503742910        1.4777889914        0.0000000000
 C          1.7154421361        2.1321333379        1.3638796914
 N          2.3015921853        1.3668020912        2.4456313573
 C          1.8398196887       -0.0038154318        2.5414531833
 C          2.0473734433       -0.7793636120        1.2409407808
 S          3.9046949256        1.6699600019        2.8209087727
 O          4.2382897283        3.0839630319        2.8006922835
 O          4.3646874655        0.9497379938        3.9958998561
 C          4.5198574450        0.8829270252        1.3488258253
 N          2.0706862947       -0.6660799242       -1.1878339307
 C          2.8466999579       -0.0536949343       -2.1325056416
 N          3.2386500187       -0.8211995251       -3.0993934703
 C          2.6986798458       -2.0480395877       -2.8138387568
 C          1.9497911232       -1.9731178519       -1.6085189889
 C          1.3128987970       -3.1519329866       -1.1837576617
 C          0.4740430864       -3.6179005876       -0.1329241803
 C          0.2238552272       -4.9372787313       -0.3740027007
 N          0.8533570766       -5.3365555352       -1.5129776614
 C          1.5239852707       -4.2772533110       -2.0355978168
 N          2.2363513736       -4.3450537750       -3.1624888998
 C          2.8174993331       -3.2302138792       -3.5466676153
 H          3.0072221295        1.5911815578       -0.2315821349
 H          1.3721986559        2.0027154607       -0.7675983417
 H          2.2093339739        3.1023894431        1.3520002047
 H          0.6521548985        2.2544618607        1.5767637343
 H          2.4302673544       -0.4910445826        3.3156245250
 H          0.7878724905        0.0202072936        2.8336135327
 H          1.5415481400       -1.7459150246        1.2906143639
 H          3.1123696984       -0.9829793125        1.1360601323
 H          3.1113472881        0.9807062065       -2.0972505346
 H          0.0733506877       -3.0875676668        0.7091612290
 H         -0.3715791265       -5.6109445992        0.2088148469
 H          3.3942644348       -3.2655128371       -4.4578542515
 H          0.8329103370       -6.2559262027       -1.9217545651
 H         -0.3779141092        0.3323758115        0.9663695744
 H         -0.3660657499        0.6720404655       -0.7703047936
 H         -0.3848651603       -0.9911735205       -0.2054075073
 H          4.1734858618       -0.1398931315        1.3863320249
 H          5.5995438304        0.9114178554        1.4087612987
 H          4.1523841695        1.4106163253        0.4805118754
  42
    -0.684691 !GC
 C          0.0000000000        0.0000000000        0.0000000000
 C          1.5283797530        0.0000000000        0.0000000000
 C          1.9511837946        1.4775996077        0.0000000000
 C          1.7122308884        2.1322321182        1.3631708764
 N          2.2955364506        1.3672466554        2.4468950368
 C          1.8358058465       -0.0041621245        2.5408736189
 C          2.0466160955       -0.7789737288        1.2404573888
 S          3.8955890830        1.6770530906        2.8290550121
 O          4.2182760349        3.0936836501        2.8315459317
 O          4.3599252515        0.9419508574        3.9930311436
 C          4.5176197702        0.9208258527        1.3438787343
 N          2.0702593496       -0.6669748419       -1.1875131124
 C          2.8465038426       -0.0559226758       -2.1329043524
 N          3.2424499804       -0.8261060838       -3.0960372529
 C          2.7052284778       -2.0533617240       -2.8069286265
 C          1.9532255423       -1.9757354266       -1.6038491049
 C          1.3181633275       -3.1545750410       -1.1762866099
 C          0.4776265703       -3.6183487784       -0.1257457941
 C          0.2328530610       -4.9398007936       -0.3612965513
 N          0.8663824158       -5.3420452420       -1.4969078362
 C          1.5346179761       -4.2828670114       -2.0227508355
 N          2.2501763541       -4.3531882160       -3.1473939232
 C          2.8289279557       -3.2381865352       -3.5347930422
 H          3.0088718233        1.5902117440       -0.2283283085
 H          1.3753689403        2.0021882589       -0.7696807677
 H          2.2053477967        3.1029064651        1.3528343250
 H          0.6481664290        2.2540089650        1.5727296053
 H          2.4257329324       -0.4910056359        3.3156426826
 H          0.7832899857        0.0179907238        2.8311421588
 H          1.5419274615       -1.7461298727        1.2890391635
 H          3.1120535368       -0.9815571486        1.1375504071
 H          3.1081779227        0.9794018405       -2.1011255163
 H          0.0717776500       -3.0854967994        0.7123348815
 H         -0.3616302322       -5.6127539463        0.2232544495
 H          3.4088026288       -3.2759468675       -4.4439420147
 H          0.8507780715       -6.2635524056       -1.9008848101
 H         -0.3778140808        0.3338714853        0.9658667987
 H         -0.3659412550        0.6710267010       -0.7713853328
 H         -0.3845814879       -0.9915240306       -0.2041957021
 H          4.1525185738        1.5183827470        0.5210118787
 H          4.1755298361       -0.1028338099        1.2930689777
 H          5.5962886722        0.9813518190        1.3966201254
  42
    -0.680194 !GC
 C          0.0000000000        0.0000000000        0.0000000000
 C          1.5300484205        0.0000000000        0.0000000000
 C          1.9791032779        1.4656301915        0.0000000000
 C          2.2769240572        2.0140105378        1.4054584120
 N          3.3581838032        1.3056707441        2.0287500590
 C          3.5096484407       -0.0427311951        1.5613306387
 C          2.1428013840       -0.6954139728        1.3383206727
 S          4.6515765694        2.1015838123        2.6331213482
 O          4.3240245950        3.5047454063        2.5533447186
 O          4.9784004975        1.5713109699        3.9440491565
 C          6.0637317243        1.8060436694        1.5551100567
 N          2.0281713277       -0.7061117482       -1.1823757591
 C          3.0572145549       -1.6041061281       -1.1990820842
 N          3.3201800175       -2.1096314099       -2.3630497105
 C          2.4374519282       -1.5017738184       -3.2179850267
 C          1.6307471331       -0.5847427242       -2.4963136560
 C          0.7420526417        0.2042590046       -3.2469321313
 C         -0.1704565216        1.2838411976       -3.0768656873
 C         -0.6813705477        1.5780245418       -4.3076018754
 N         -0.1500460639        0.7494477232       -5.2466693130
 C          0.7303728669       -0.0902344697       -4.6427741325
 N          1.4499955523       -0.9980622036       -5.3067050959
 C          2.3058074643       -1.6944460213       -4.5927355371
 H          2.8468237249        1.5948153363       -0.6495317592
 H          1.1630440859        2.0454613504       -0.4361436352
 H          2.5947511668        3.0528570256        1.3333646569
 H          1.3993289336        1.9178696281        2.0475293799
 H          4.0886075616       -0.0604651774        0.6261038990
 H          4.0639257341       -0.5763483904        2.3338262430
 H          1.5118002024       -0.4567566155        2.1949655513
 H          2.2428414093       -1.7735536828        1.2738551722
 H          3.6340330434       -1.8542610228       -0.3350887559
 H         -0.4334857582        1.8191248892       -2.1851326079
 H         -1.3940768688        2.3352991633       -4.5664410528
 H          2.9118741507       -2.4156382799       -5.1192938597
 H         -0.3434500011        0.7566390266       -6.2341311263
 H         -0.3963066211       -1.0045316577       -0.0937509241
 H         -0.3753203708        0.4551030446        0.9155589994
 H         -0.3637167759        0.5987546292       -0.8269449861
 H          6.9239429545        2.3265070677        1.9516685574
 H          5.7980933848        2.1312052333        0.5608489985
 H          6.2309033771        0.7370885000        1.5811267090
  42
    -0.678143 !GC
 C          0.0000000000        0.0000000000        0.0000000000
 C          1.5297800660        0.0000000000        0.0000000000
 C          2.0108035409        1.4462655410        0.0000000000
 C          1.7028356347        2.1449748626        1.3234558149
 N          2.2647539065        1.4239747709        2.4432268531
 C          1.8809206323        0.0302360291        2.5337094462
 C          2.1022313793       -0.7559685388        1.2367776916
 S          3.7838502159        1.8153913161        2.9784041725
 O          4.8453870722        1.0464129218        2.3444029502
 O          3.8942498458        3.2534402016        2.8780230533
 C          3.7114153760        1.3667597296        4.7105084869
 N          2.0191389940       -0.7325707761       -1.1710759326
 C          2.9400880792       -1.7411997781       -1.1580180919
 N          3.2233475608       -2.2343505253       -2.3227123077
 C          2.4455433189       -1.5267287905       -3.2034170166
 C          1.6740341483       -0.5695269341       -2.4944470543
 C          0.7934060067        0.2265004669       -3.2451029564
 C         -0.1639098074        1.2628791879       -3.0601348121
 C         -0.6705182329        1.5656845407       -4.2904774061
 N         -0.0955351674        0.7803766108       -5.2417486668
 C          0.8037319035       -0.0443665056       -4.6450907618
 N          1.5373724420       -0.9397216436       -5.3113736978
 C          2.3543657527       -1.6738431137       -4.5891736898
 H          3.0898810065        1.4735628701       -0.1446289420
 H          1.5175593699        1.9666060907       -0.8219100599
 H          2.1634814412        3.1325749292        1.3362126443
 H          0.6285026347        2.2496025863        1.4871131533
 H          2.4774683815       -0.4240142121        3.3233745165
 H          0.8261512808       -0.0031716733        2.8184874515
 H          1.6400810874       -1.7382162321        1.3467295721
 H          3.1692024726       -0.9351797317        1.0992601929
 H          3.3947640444       -2.1112621409       -0.2640834484
 H         -0.4459645504        1.7670449654       -2.1570331886
 H         -1.4108726835        2.2981428525       -4.5426923056
 H          2.9516700144       -2.4044003457       -5.1128670437
 H         -0.2823635895        0.7998873948       -6.2301711036
 H         -0.4019847128       -1.0026217579        0.0795903915
 H         -0.3693057212        0.6067463138        0.8267852860
 H         -0.3617809011        0.4383981218       -0.9229694274
 H          2.9232605880        1.9610962310        5.1536789484
 H          4.6726653976        1.5829301663        5.1506157325
 H          3.4735548727        0.3131290724        4.7685132353
  42
    -0.676309 !GC
 C          0.0000000000        0.0000000000        0.0000000000
 C          1.5297675756        0.0000000000        0.0000000000
 C          2.0989940704        1.4456192301        0.0000000000
 C          1.8752993773        2.1482696121        1.3436444664
 N          2.2545811458        1.3478931486        2.4899059585
 C          1.6928861378        0.0162413918        2.5241606345
 C          2.0065466082       -0.7524271973        1.2414949616
 S          3.7690837791        1.6048228405        3.1125795098
 O          3.8563389073        0.8016592287        4.3113852349
 O          4.8422069853        1.4273707444        2.1443636377
 C          3.7062168325        3.3310621640        3.5848425377
 N          2.0204656568       -0.6155290901       -1.2359631120
 C          2.9454002789       -0.0783200716       -2.0853904217
 N          3.2307614604       -0.8133133616       -3.1141327910
 C          2.4500047756       -1.9324682131       -2.9748775302
 C          1.6748729694       -1.8279098540       -1.7905932498
 C          0.7912758099       -2.8825025712       -1.5078178039
 C         -0.1695158139       -3.2657590334       -0.5306489406
 C         -0.6769265693       -4.4717805156       -0.9178339401
 N         -0.0992280428       -4.8724293927       -2.0831846389
 C          0.8024770855       -3.9336796959       -2.4712873905
 N          1.5397449160       -4.0343640147       -3.5803807142
 C          2.3597461841       -3.0365809793       -3.8252658644
 H          3.1668279997        1.4180994033       -0.2196733805
 H          1.6417972628        2.0487009067       -0.7861486676
 H          2.4738719439        3.0576201757        1.3655775994
 H          0.8210505725        2.4123542325        1.4600487355
 H          2.1511751998       -0.4840729385        3.3770604053
 H          0.6179179947        0.1012989843        2.6944227352
 H          1.5192673372       -1.7281417641        1.2578078288
 H          3.0864558115       -0.8843476087        1.1919341412
 H          3.4015610660        0.8761330724       -1.9309526481
 H         -0.4531369484       -2.7600963506        0.3709958366
 H         -1.4193938907       -5.0688964283       -0.4274862064
 H          2.9600771093       -3.1021678491       -4.7197187331
 H         -0.2857644449       -5.7247471164       -2.5843047480
 H         -0.3847790753       -1.0096134194       -0.1162567672
 H         -0.3787849842        0.4346157837        0.9190314910
 H         -0.3697122747        0.5932167360       -0.8307927176
 H          4.6784747143        3.5933042048        3.9768330496
 H          2.9236501550        3.4484169995        4.3185302215
 H          3.4898739072        3.8985324150        2.6878159751
  42
    -0.675715 !GC
 C          0.0000000000        0.0000000000        0.0000000000
 C          1.5283116236        0.0000000000        0.0000000000
 C          2.0395182070        1.4529941366        0.0000000000
 C          1.8265241144        2.1510710894        1.3428526561
 N          2.2881926577        1.3506668956        2.4596594223
 C          1.7086866018        0.0250401604        2.5399672513
 C          1.9500741957       -0.7893044822        1.2662812157
 S          3.8869451456        1.5171907154        2.9270086441
 O          4.3475162726        2.8949907567        2.9129141903
 O          4.2095990229        0.7768993165        4.1347867634
 C          4.5136797093        0.6522496315        1.5045195099
 N          2.0705770337       -0.6454478768       -1.1991830912
 C          2.8445950201       -1.7725895840       -1.1897986427
 N          3.2399279807       -2.1738388965       -2.3560892592
 C          2.7052464648       -1.2705855636       -3.2373972611
 C          1.9543371479       -0.2954537064       -2.5273957121
 C          1.3206304994        0.6983568337       -3.2932800302
 C          0.4805437416        1.8342840513       -3.1224268407
 C          0.2350074011        2.3424405023       -4.3646670756
 N          0.8685034657        1.5987880922       -5.3125109489
 C          1.5368018415        0.5875744416       -4.6995419360
 N          2.2513884246       -0.3250526894       -5.3614796722
 C          2.8293471123       -1.2501301938       -4.6277202672
 H          3.1050726990        1.4749335564       -0.2258171949
 H          1.5340751237        2.0020432117       -0.7971856796
 H          2.4147448186        3.0672193537        1.3366994781
 H          0.7733644621        2.3836755862        1.5141462433
 H          2.2022278411       -0.4936749724        3.3602405182
 H          0.6442555242        0.1363905405        2.7534757099
 H          1.3773258666       -1.7217125009        1.3071845458
 H          3.0084365933       -1.0397508407        1.2421388173
 H          3.1049552107       -2.3010594159       -0.2984725679
 H          0.0753847514        2.2572386279       -2.2234424220
 H         -0.3597151001        3.1963055043       -4.6199590853
 H          3.4058095649       -1.9998972305       -5.1471362011
 H          0.8521180890        1.7505257198       -6.3071775480
 H         -0.3656960871       -1.0114538324        0.1504144137
 H         -0.3784808238        0.6341174714        0.8012867207
 H         -0.3845161162        0.3611989302       -0.9456922888
 H          4.1622501747        1.1389732675        0.6062519431
 H          4.1608651541       -0.3657956325        1.5864610138
 H          5.5924367257        0.6781704580        1.5790949462
  42
    -0.674471 !GC
 C          0.0000000000        0.0000000000        0.0000000000
 C          1.5300072904        0.0000000000        0.0000000000
 C          1.9792857083        1.4655751361        0.0000000000
 C          2.2781587985        2.0131721515        1.4054708790
 N          3.3599454591        1.3045999360        2.0277587015
 C          3.5108745252       -0.0438515494        1.5603229172
 C          2.1437830301       -0.6962394996        1.3385722968
 S          4.6542517077        2.1014974714        2.6289184006
 O          4.3232906810        3.5042335515        2.5555476372
 O          4.9883540901        1.5677542698        3.9365477977
 C          6.0618704813        1.8131504257        1.5429517964
 N          2.0286873049       -0.7062505146       -1.1820805111
 C          3.0578752540       -1.6040544881       -1.1981328683
 N          3.3188881539       -2.1127177417       -2.3611730863
 C          2.4353717236       -1.5066478941       -3.2164422337
 C          1.6292228116       -0.5880567116       -2.4957748853
 C          0.7391758862        0.1991655252       -3.2466677615
 C         -0.1726919210        1.2794729180       -3.0777895427
 C         -0.6858902552        1.5704582014       -4.3082958565
 N         -0.1568343024        0.7389976538       -5.2460958386
 C          0.7249527917       -0.0990018290       -4.6417053133
 N          1.4434680280       -1.0085925173       -5.3045741684
 C          2.3012556757       -1.7025637292       -4.5905466014
 H          2.8467515056        1.5949785439       -0.6498394057
 H          1.1630439856        2.0457797136       -0.4353654215
 H          2.5958241540        3.0520694473        1.3336368936
 H          1.4009909001        1.9165018215        2.0480725327
 H          4.0890098785       -0.0618736582        0.6245613732
 H          4.0658524577       -0.5774661094        2.3323007492
 H          1.5133327695       -0.4567434816        2.1954015744
 H          2.2435684487       -1.7744519194        1.2747789092
 H          3.6359440348       -1.8519470187       -0.3342716133
 H         -0.4333243133        1.8176987558       -2.1870829523
 H         -1.3983207872        2.3276982519       -4.5679627412
 H          2.9060776358       -2.4253509720       -5.1163227285
 H         -0.3518242162        0.7438303744       -6.2332685524
 H         -0.3960942801       -1.0047520954       -0.0921914127
 H         -0.3753573063        0.4563337346        0.9148565732
 H         -0.3638460737        0.5975805163       -0.8277039780
 H          5.8212988887        2.1751591743        0.5533351392
 H          6.2341969712        0.7475685710        1.5405383720
 H          6.9055702504        2.3407495486        1.9679386651
  42
    -0.674454 !GC
 C          0.0000000000        0.0000000000        0.0000000000
 C          1.5283540152        0.0000000000        0.0000000000
 C          1.9509529114        1.4775472774        0.0000000000
 C          1.7115431276        2.1322795640        1.3629890797
 N          2.2928951004        1.3672490037        2.4478081997
 C          1.8329592065       -0.0043246960        2.5411601335
 C          2.0465748798       -0.7782811350        1.2407482269
 S          3.8936809028        1.6718534624        2.8318287951
 O          4.2281287213        3.0854859564        2.8095213609
 O          4.3467058578        0.9551066572        4.0115242849
 C          4.5161551274        0.8793673424        1.3660477339
 N          2.0701002563       -0.6670400920       -1.1875788871
 C          2.8447631745       -0.0553143491       -2.1337657761
 N          3.2421677727       -0.8256459537       -3.0961844719
 C          2.7084044169       -2.0539591156       -2.8051768839
 C          1.9558682339       -1.9765816496       -1.6024955401
 C          1.3230321027       -3.1562623313       -1.1736761082
 C          0.4829872502       -3.6211354224       -0.1231715039
 C          0.2409847064       -4.9431953972       -0.3577326706
 N          0.8768428838       -5.3453630544       -1.4921336534
 C          1.5431127793       -4.2851550010       -2.0184677164
 N          2.2590802365       -4.3552084531       -3.1429200066
 C          2.8351064548       -3.2393469597       -3.5316411878
 H          3.0086619199        1.5905058984       -0.2280911083
 H          1.3755975443        2.0022039243       -0.7699709809
 H          2.2062164261        3.1021188128        1.3524473485
 H          0.6475140647        2.2556047128        1.5717390493
 H          2.4208841741       -0.4908688655        3.3177166528
 H          0.7797862770        0.0177265065        2.8288551906
 H          1.5438260643       -1.7464850082        1.2884580849
 H          3.1124910546       -0.9784329252        1.1384941874
 H          3.1043464720        0.9805480503       -2.1028287675
 H          0.0751527192       -3.0877967326        0.7136833942
 H         -0.3529125623       -5.6168213968        0.2266174881
 H          3.4124534537       -3.2760514000       -4.4424392499
 H          0.8640905938       -6.2674174583       -1.8950384119
 H         -0.4065064953        0.3041223639        0.9597448691
 H         -0.3780303090        0.6452597024       -0.7926073444
 H         -0.3432881522       -1.0056886241       -0.2101299645
 H          4.1719610368       -0.1442248439        1.4072258113
 H          5.5955449287        0.9108331353        1.4305427102
 H          4.1510417070        1.4022421585        0.4937818797
  42
    -0.671853 !GC
 C          0.0000000000        0.0000000000        0.0000000000
 C          1.5295122163        0.0000000000        0.0000000000
 C          2.0992512117        1.4455264911        0.0000000000
 C          1.8812718334        2.1461318070        1.3455451708
 N          2.2680501828        1.3443988577        2.4884683912
 C          1.7023194939        0.0144042001        2.5244935935
 C          2.0061335367       -0.7544602992        1.2396243895
 S          3.7915913115        1.5934271043        3.0934288490
 O          3.9136681152        0.7467671418        4.2591737699
 O          4.8449430866        1.4640486528        2.0966978041
 C          3.7216644580        3.3002235011        3.6305690421
 N          2.0219971893       -0.6155985666       -1.2353253296
 C          2.9402927130       -0.0737872080       -2.0891286464
 N          3.2190221254       -0.8040936942       -3.1230733616
 C          2.4409468079       -1.9249766889       -2.9825218864
 C          1.6740186410       -1.8260587647       -1.7925722078
 C          0.7968138899       -2.8849030724       -1.5057413438
 C         -0.1508131836       -3.2765992206       -0.5191624175
 C         -0.6591281456       -4.4820044495       -0.9070429021
 N         -0.0959714843       -4.8732304335       -2.0827532104
 C          0.7995276385       -3.9304424354       -2.4753292229
 N          1.5233884927       -4.0223996795       -3.5940228629
 C          2.3393153670       -3.0220328258       -3.8413152990
 H          3.1661438845        1.4192757723       -0.2246654848
 H          1.6383274554        2.0496475055       -0.7830999864
 H          2.4784777094        3.0565489368        1.3661943548
 H          0.8270478210        2.4076335442        1.4681458050
 H          2.1632623469       -0.4891845658        3.3739149604
 H          0.6286522725        0.1032991657        2.7011352219
 H          1.5130126616       -1.7272481707        1.2573383434
 H          3.0849945160       -0.8926359858        1.1857990081
 H          3.3971259049        0.8801461772       -1.9335082902
 H         -0.4235653210       -2.7777709984        0.3896794905
 H         -1.3931608212       -5.0847636201       -0.4109038047
 H          2.9309511185       -3.0808159947       -4.7420277303
 H         -0.2847402542       -5.7243075282       -2.5851496248
 H         -0.4011901291        0.3869919373        0.9286949922
 H         -0.3852021318        0.5809499300       -0.8336486856
 H         -0.3461797954       -1.0242269388       -0.1170958444
 H          4.6994088076        3.5428640723        4.0257213940
 H          2.9613318028        3.3674647961        4.3954334306
 H          3.4827495680        3.9159575177        2.7756544366
  42
    -0.668873 !GC
 C          0.0000000000        0.0000000000        0.0000000000
 C          1.5283078386        0.0000000000        0.0000000000
 C          2.0402177744        1.4527205337        0.0000000000
 C          1.8246858610        2.1515294834        1.3419092952
 N          2.2873963880        1.3521729154        2.4590115500
 C          1.7093850487        0.0259159323        2.5401141572
 C          1.9489754173       -0.7892317396        1.2664559646
 S          3.8861534842        1.5229497275        2.9246634624
 O          4.3461739858        2.9006650929        2.8963348300
 O          4.2097215422        0.7951047220        4.1398130006
 C          4.5124528521        0.6433200735        1.5110332010
 N          2.0708220814       -0.6451372028       -1.1992553002
 C          2.8393746006       -1.7760159367       -1.1904687522
 N          3.2341807747       -2.1775815323       -2.3568096199
 C          2.7048071529       -1.2706400946       -3.2375285391
 C          1.9572871637       -0.2931436051       -2.5271635393
 C          1.3287105295        0.7043295917       -3.2924989111
 C          0.4922513066        1.8428521067       -3.1212656462
 C          0.2518115309        2.3547051900       -4.3629728229
 N          0.8843147992        1.6103913797       -5.3108996897
 C          1.5473438884        0.5953781098       -4.6985009752
 N          2.2591114529       -0.3192150023       -5.3607268065
 C          2.8314909017       -1.2482153955       -4.6275640476
 H          3.1064042434        1.4738940527       -0.2232519002
 H          1.5368750499        2.0013719849       -0.7987605460
 H          2.4113077001        3.0686455364        1.3355087310
 H          0.7710134837        2.3822931209        1.5123767453
 H          2.2046248413       -0.4919471219        3.3599176745
 H          0.6451972654        0.1363560901        2.7553348376
 H          1.3745210853       -1.7205722994        1.3080261941
 H          3.0067031779       -1.0418162968        1.2419520530
 H          3.0961971343       -2.3068315164       -0.2996240731
 H          0.0850732386        2.2644530747       -2.2224416986
 H         -0.3391851199        3.2112448681       -4.6180123513
 H          3.4051884146       -1.9998496917       -5.1472412906
 H          0.8701747939        1.7637741191       -6.3053039656
 H         -0.3658495992       -1.0120684470        0.1457978019
 H         -0.3784055019        0.6307171855        0.8039213517
 H         -0.3843037838        0.3653452110       -0.9441817778
 H          5.5912844266        0.6468421083        1.5457902504
 H          4.1263701786        1.1456446008        0.6343616807
 H          4.1015408492       -0.3559248450        1.5631361812
  42
    -0.668171 !GC
 C          0.0000000000        0.0000000000        0.0000000000
 C          1.5295123424        0.0000000000        0.0000000000
 C          2.0099766024        1.4464881065        0.0000000000
 C          1.7081321884        2.1441270942        1.3253675052
 N          2.2757488711        1.4218129527        2.4416526105
 C          1.8871327889        0.0293751984        2.5334233473
 C          2.1026160123       -0.7564077451        1.2354263406
 S          3.8027627409        1.8048583875        2.9614053340
 O          4.8550833967        1.0400936228        2.3072511406
 O          3.9147227435        3.2434877913        2.8727266692
 C          3.7516140687        1.3409207126        4.6903290077
 N          2.0223438585       -0.7312713133       -1.1704144563
 C          2.9468001655       -1.7366682181       -1.1558568244
 N          3.2295589986       -2.2325842235       -2.3195073532
 C          2.4468713463       -1.5310522723       -3.2009400465
 C          1.6735005567       -0.5741470821       -2.4934748204
 C          0.7895917649        0.2178137635       -3.2446737437
 C         -0.1684054860        1.2538684817       -3.0611514864
 C         -0.6789439524        1.5511791970       -4.2910943792
 N         -0.1068423611        0.7617771950       -5.2407967949
 C          0.7959066943       -0.0587336101       -4.6435434418
 N          1.5288385035       -0.9557567275       -5.3082694806
 C          2.3502609116       -1.6846610875       -4.5858888200
 H          3.0884865078        1.4738977702       -0.1487408978
 H          1.5136763743        1.9668358957       -0.8200835223
 H          2.1685891577        3.1318645539        1.3368131305
 H          0.6346278841        2.2480235616        1.4946501360
 H          2.4843870233       -0.4274783668        3.3209630532
 H          0.8331989598        0.0001300738        2.8216159651
 H          1.6391977502       -1.7381594242        1.3451321562
 H          3.1689544778       -0.9369931031        1.0954193909
 H          3.4047524519       -2.1019047285       -0.2616059979
 H         -0.4483096233        1.7616944881       -2.1595570904
 H         -1.4207551430        2.2820001214       -4.5438286209
 H          2.9471903659       -2.4156206623       -5.1094202587
 H         -0.2974737129        0.7762968208       -6.2286359325
 H         -0.3908745996        0.5606986667        0.8470202983
 H         -0.3785573365        0.4267245494       -0.9228450997
 H         -0.3634778230       -1.0179997857        0.0808055168
 H          2.9778648321        1.9314132889        5.1595175512
 H          4.7253651474        1.5695130411        5.1029978348
 H          3.5397227788        0.2835515631        4.7527173158
  42
    -0.664872 !GC
 C          0.0000000000        0.0000000000        0.0000000000
 C          1.5283297914        0.0000000000        0.0000000000
 C          1.9500887814        1.4779040146        0.0000000000
 C          1.7136242807        2.1325865296        1.3636515530
 N          2.2928911025        1.3658234106        2.4481604373
 C          1.8308967574       -0.0049673755        2.5407304096
 C          2.0466103531       -0.7784335934        1.2403710725
 S          3.8919838718        1.6671997910        2.8403479069
 O          4.2258049803        3.0813296530        2.8376786195
 O          4.3414438159        0.9351343172        4.0120303930
 C          4.5195560734        0.8948518182        1.3658374016
 N          2.0707189701       -0.6668574265       -1.1873630690
 C          2.8391509271       -0.0534489473       -2.1375047388
 N          3.2412349994       -0.8250572742       -3.0969483726
 C          2.7162092949       -2.0558027880       -2.8004390896
 C          1.9641123166       -1.9785241234       -1.5974801039
 C          1.3382631184       -3.1602074166       -1.1640514448
 C          0.4982994333       -3.6249058303       -0.1133624516
 C          0.2664309500       -4.9500690635       -0.3411158258
 N          0.9076478309       -5.3539043670       -1.4718775198
 C          1.5673145052       -4.2918180590       -2.0028155176
 N          2.2848836714       -4.3623137923       -3.1262074439
 C          2.8519511569       -3.2438709543       -3.5209198814
 H          3.0071303276        1.5915361186       -0.2304421145
 H          1.3726679633        2.0025356641       -0.7685471206
 H          2.2107174505        3.1012693196        1.3537350180
 H          0.6499291678        2.2586290718        1.5726583100
 H          2.4171515101       -0.4925544211        3.3177673232
 H          0.7772805167        0.0178623357        2.8267924755
 H          1.5447685961       -1.7471314090        1.2868786207
 H          3.1129719762       -0.9770854991        1.1388526122
 H          3.0907569166        0.9844981094       -2.1117499718
 H          0.0830339232       -3.0895040390        0.7185292157
 H         -0.3241114175       -5.6246571378        0.2455631835
 H          3.4305409073       -3.2809736139       -4.4308999701
 H          0.9017317675       -6.2780977555       -1.8700011068
 H         -0.3656784002        0.3112392193        0.9740568283
 H         -0.4060827053        0.6520269343       -0.7673982781
 H         -0.3557313400       -1.0126314455       -0.1721691701
 H          4.1790980433       -0.1289351336        1.3334689032
 H          5.5953466418        0.9816909115        1.4143083859
 H          4.1499268310        1.4678588841        0.5248120840
  42
    -0.663727 !GC
 C          0.0000000000        0.0000000000        0.0000000000
 C          1.5283007733        0.0000000000        0.0000000000
 C          1.9493279342        1.4780915448        0.0000000000
 C          1.7174703618        2.1320174001        1.3647767598
 N          2.3005683375        1.3649372615        2.4469228574
 C          1.8366011509       -0.0050770592        2.5410754605
 C          2.0484295695       -0.7789166585        1.2404195587
 S          3.9038453497        1.6604420928        2.8276932359
 O          4.2393375274        3.0743358128        2.8385819351
 O          4.3626946038        0.9143618802        3.9865480995
 C          4.5178107830        0.9061462927        1.3380546991
 N          2.0707282218       -0.6663785596       -1.1876402590
 C          2.8366262797       -0.0511248234       -2.1387116610
 N          3.2324165828       -0.8196506033       -3.1032014074
 C          2.7058229132       -2.0503170708       -2.8092282964
 C          1.9597994441       -1.9763405720       -1.6020669861
 C          1.3335494252       -3.1584503869       -1.1705539677
 C          0.4983737808       -3.6260044905       -0.1174321642
 C          0.2608067260       -4.9491364283       -0.3507662272
 N          0.8949669999       -5.3492972011       -1.4868270529
 C          1.5551792661       -4.2866656813       -2.0158832220
 N          2.2666551935       -4.3539975095       -3.1433574532
 C          2.8349843764       -3.2354035545       -3.5356253123
 H          3.0051834351        1.5924645881       -0.2347876758
 H          1.3685142954        2.0031679961       -0.7655201177
 H          2.2147060505        3.1006188349        1.3535863650
 H          0.6546463880        2.2581232625        1.5780013512
 H          2.4239757952       -0.4937791468        3.3166104851
 H          0.7836928357        0.0196954676        2.8295004148
 H          1.5462259152       -1.7474207897        1.2882329020
 H          3.1145568390       -0.9780620052        1.1367256907
 H          3.0907944352        0.9861093734       -2.1100045153
 H          0.0899753843       -3.0937803401        0.7197789557
 H         -0.3285799878       -5.6250061325        0.2356267252
 H          3.4089044005       -3.2696655672       -4.4486500021
 H          0.8830494407       -6.2711354570       -1.8904144683
 H         -0.3784751470        0.3414988951        0.9629368562
 H         -0.3661066173        0.6641806336       -0.7770804859
 H         -0.3843087072       -0.9933282847       -0.1959839341
 H          4.1034151334        1.4757757326        0.5186443000
 H          4.1380957111       -0.1055425922        1.3308445602
 H          5.5992032699        0.9292109049        1.3359152808
  42
    -0.662901 !GC
 C          0.0000000000        0.0000000000        0.0000000000
 C          1.5283421557        0.0000000000        0.0000000000
 C          1.9508811263        1.4775909226        0.0000000000
 C          1.7125883417        2.1321392688        1.3632654893
 N          2.2942073738        1.3666408991        2.4475199599
 C          1.8339376132       -0.0045933466        2.5414724485
 C          2.0463287645       -0.7785765905        1.2408353141
 S          3.8936392806        1.6724660943        2.8348335938
 O          4.2265365727        3.0865829102        2.8143712516
 O          4.3450356907        0.9550875798        4.0149830946
 C          4.5198968957        0.8819685065        1.3693460020
 N          2.0703730501       -0.6667040261       -1.1876383363
 C          2.8449381072       -0.0549643573       -2.1338795627
 N          3.2429768475       -0.8254568519       -3.0959345044
 C          2.7087901283       -2.0536421987       -2.8052060142
 C          1.9558509205       -1.9761344255       -1.6027260433
 C          1.3225976580       -3.1555960808       -1.1740853834
 C          0.4817989043       -3.6199386446       -0.1238823177
 C          0.2389645680       -4.9418342859       -0.3588677497
 N          0.8755596268       -5.3444131240       -1.4926773586
 C          1.5427040758       -4.2846203818       -2.0186676399
 N          2.2596118952       -4.3550218576       -3.1424689051
 C          2.8358270301       -3.2392500926       -3.5312350682
 H          3.0083782901        1.5906255167       -0.2290313982
 H          1.3747638487        2.0022136113       -0.7694130831
 H          2.2077358168        3.1017685788        1.3525215050
 H          0.6486600875        2.2559957458        1.5724622231
 H          2.4222102632       -0.4912641916        3.3176819618
 H          0.7809296477        0.0175430233        2.8297345568
 H          1.5426036406       -1.7462293431        1.2887865586
 H          3.1120255829       -0.9797665564        1.1383111391
 H          3.1045774973        0.9808692806       -2.1030079960
 H          0.0743714967       -3.0866355004        0.7132504343
 H         -0.3557261500       -5.6151562986        0.2250307226
 H          3.4144914093       -3.2763714195       -4.4411932707
 H          0.8626764091       -6.2665436775       -1.8953708476
 H         -0.4066108616        0.3035420546        0.9598204262
 H         -0.3782616908        0.6455176573       -0.7921223325
 H         -0.3432996130       -1.0055017823       -0.2106016278
 H          5.5981127905        0.9546992730        1.4163524767
 H          4.1458009839        1.4540378099        0.5324187260
 H          4.1883506820       -0.1462142656        1.3470630868
  42
    -0.660555 !GC
 C          0.0000000000        0.0000000000        0.0000000000
 C          1.5301755955        0.0000000000        0.0000000000
 C          1.9778732042        1.4660358540        0.0000000000
 C          2.2714127380        2.0165868775        1.4054900404
 N          3.3521550516        1.3103479081        2.0316977793
 C          3.5076788494       -0.0374350155        1.5638254634
 C          2.1426875281       -0.6932567394        1.3384969159
 S          4.6407086895        2.1070032536        2.6448508013
 O          4.3119642050        3.5098813643        2.5644938047
 O          4.9599219269        1.5758250798        3.9572946226
 C          6.0600286000        1.8140668191        1.5756467002
 N          2.0274339758       -0.7057230409       -1.1829803271
 C          3.0547552500       -1.6055970981       -1.2008888304
 N          3.3214100974       -2.1048587865       -2.3667569763
 C          2.4432256680       -1.4902768459       -3.2215928649
 C          1.6350030664       -0.5769109693       -2.4977300445
 C          0.7492419382        0.2164478478       -3.2472375048
 C         -0.1649756506        1.2941652504       -3.0744498413
 C         -0.6705286624        1.5959749347       -4.3054603916
 N         -0.1341347839        0.7740957661       -5.2474207751
 C          0.7438143190       -0.0691107027       -4.6449289359
 N          1.4661398443       -0.9729591606       -5.3113311196
 C          2.3176735079       -1.6749711436       -4.5977775329
 H          2.8469907955        1.5952322274       -0.6476384407
 H          1.1622932675        2.0446016443       -0.4387179618
 H          2.5881512760        3.0557615387        1.3331868073
 H          1.3923822594        1.9199492789        2.0454314924
 H          4.0880269448       -0.0530670123        0.6294420835
 H          4.0617215115       -0.5702395902        2.3369987105
 H          1.5105172743       -0.4584144975        2.1953538073
 H          2.2457161644       -1.7710487462        1.2716848443
 H          3.6271719975       -1.8624974743       -0.3359694312
 H         -0.4330890641        1.8229965251       -2.1804670475
 H         -1.3829323263        2.3541724460       -4.5625000089
 H          2.9256287101       -2.3931264881       -5.1261543158
 H         -0.3236311362        0.7869507571       -6.2355135955
 H         -0.3856086455        0.4192106563        0.9249108372
 H         -0.3934879167        0.5700512331       -0.8372217120
 H         -0.3563427242       -1.0194092910       -0.0936263043
 H          6.9142525169        2.3445895947        1.9715936401
 H          5.7958680505        2.1289368481        0.5777649285
 H          6.2357497598        0.7467432692        1.6113328008
  42
    -0.660429 !GC
 C          0.0000000000        0.0000000000        0.0000000000
 C          1.5300269723        0.0000000000        0.0000000000
 C          1.9790898926        1.4655791615        0.0000000000
 C          2.2772938701        2.0137800718        1.4054195508
 N          3.3592365791        1.3058451902        2.0281787361
 C          3.5108899891       -0.0426678437        1.5611706425
 C          2.1440642645       -0.6957159206        1.3396482434
 S          4.6525423941        2.1032122837        2.6308320771
 O          4.3215542220        3.5058546701        2.5557237854
 O          4.9843026142        1.5704377472        3.9395285756
 C          6.0621130056        1.8140194732        1.5475945376
 N          2.0283855270       -0.7061550751       -1.1822562039
 C          3.0572275212       -1.6043492088       -1.1988019467
 N          3.3190904465       -2.1112639805       -2.3624525642
 C          2.4355457828       -1.5044257160       -3.2173332444
 C          1.6297633911       -0.5861530755       -2.4959228746
 C          0.7404559027        0.2022838217       -3.2463341590
 C         -0.1709200736        1.2829034155       -3.0765159649
 C         -0.6837269593        1.5753961322       -4.3068890776
 N         -0.1545477744        0.7448810884       -5.2453915618
 C          0.7266553974       -0.0941353961       -4.6417019542
 N          1.4448546319       -1.0033185666       -5.3053590264
 C          2.3017147837       -1.6987732187       -4.5917355633
 H          2.8465836814        1.5948533433       -0.6498743835
 H          1.1628421529        2.0454637636       -0.4357650761
 H          2.5946405700        3.0527412639        1.3335295915
 H          1.3999302510        1.9169916993        2.0477520462
 H          4.0890418641       -0.0606528942        0.6254610142
 H          4.0660351716       -0.5757478207        2.3333925270
 H          1.5134141056       -0.4563215548        2.1964130885
 H          2.2442043624       -1.7738999275        1.2761542172
 H          3.6347708926       -1.8534304936       -0.3350307758
 H         -0.4319739344        1.8198756806       -2.1851928145
 H         -1.3965458417        2.3325108258       -4.5658714753
 H          2.9059889911       -2.4214411034       -5.1182387791
 H         -0.3499138029        0.7501840633       -6.2323920628
 H         -0.3858452700        0.4180744064        0.9253642768
 H         -0.3934172458        0.5710552890       -0.8367188883
 H         -0.3561434149       -1.0193856960       -0.0948266814
 H          5.8257222628        2.1795741603        0.5582386045
 H          6.2313027410        0.7479217197        1.5423539880
 H          6.9060920556        2.3378721138        1.9765510176
  42
    -0.660007 !GC
 C          0.0000000000        0.0000000000        0.0000000000
 C          1.5283300438        0.0000000000        0.0000000000
 C          2.0401105604        1.4528007772        0.0000000000
 C          1.8250505106        2.1509001901        1.3424486045
 N          2.2895557933        1.3515135779        2.4588217706
 C          1.7114636994        0.0252786287        2.5403773398
 C          1.9489742455       -0.7898578124        1.2664017746
 S          3.8901563441        1.5219917840        2.9188030168
 O          4.3448377268        2.9017924603        2.9071214807
 O          4.2224399265        0.7787341795        4.1223500530
 C          4.5130786828        0.6662960659        1.4888267117
 N          2.0707710960       -0.6453361001       -1.1991932676
 C          2.8380647689       -1.7770595337       -1.1902073504
 N          3.2331892585       -2.1787317917       -2.3564202218
 C          2.7052654064       -1.2710628846       -3.2372304760
 C          1.9585548911       -0.2927547136       -2.5270280627
 C          1.3315252226        0.7054905404       -3.2927061151
 C          0.4951724207        1.8442166161       -3.1218445971
 C          0.2572099589        2.3573810980       -4.3634881416
 N          0.8912071046        1.6137301683       -5.3109861229
 C          1.5521107180        0.5973851154       -4.6984651254
 N          2.2637421259       -0.3175583809       -5.3604839610
 C          2.8333716843       -1.2481346942       -4.6272308004
 H          3.1061422713        1.4739197876       -0.2239058536
 H          1.5362359073        2.0015353167       -0.7983983700
 H          2.4106180950        3.0687028130        1.3362091603
 H          0.7713124024        2.3805583696        1.5139317239
 H          2.2081013726       -0.4929839257        3.3590930911
 H          0.6476306877        0.1359339029        2.7572790283
 H          1.3734720850       -1.7205915720        1.3085017084
 H          3.0064223082       -1.0437318555        1.2416134359
 H          3.0934775522       -2.3086503264       -0.2994311229
 H          0.0868234178        2.2649758418       -2.2233178777
 H         -0.3325338038        3.2147192328       -4.6186956969
 H          3.4071525327       -1.9999914361       -5.1465777142
 H          0.8790829616        1.7679670098       -6.3052746275
 H         -0.3778028133       -1.0156511034        0.1138116295
 H         -0.4066606029        0.6423550782        0.7751234489
 H         -0.3435758972        0.3676124728       -0.9592668687
 H          4.1232141509        1.1898844958        0.6275600080
 H          4.1133544087       -0.3364708061        1.5394465580
 H          5.5946407173        0.6684637709        1.5042894566
  42
    -0.657610 !GC
 C          0.0000000000        0.0000000000        0.0000000000
 C          1.5283374875        0.0000000000        0.0000000000
 C          2.0398583073        1.4528875535        0.0000000000
 C          1.8252444948        2.1511871813        1.3424951740
 N          2.2865736049        1.3513265937        2.4598729522
 C          1.7082612984        0.0250819675        2.5399635235
 C          1.9498909383       -0.7889946966        1.2661657295
 S          3.8856453344        1.5192569954        2.9257214198
 O          4.3407023329        2.8991277694        2.9264564681
 O          4.2139290279        0.7667960921        4.1243910655
 C          4.5127993483        0.6747811468        1.4910515097
 N          2.0702444200       -0.6460138353       -1.1990403763
 C          2.8443601087       -1.7730471795       -1.1890058946
 N          3.2403603025       -2.1745506997       -2.3550012632
 C          2.7056276920       -1.2718558858       -3.2368011301
 C          1.9546227807       -0.2963599619       -2.5273908186
 C          1.3214754559        0.6971803030       -3.2941282038
 C          0.4810124317        1.8330000420       -3.1241188197
 C          0.2372468527        2.3414890393       -4.3665614459
 N          0.8714480264        1.5975399813       -5.3137199631
 C          1.5387259204        0.5860618872       -4.7001660919
 N          2.2536290610       -0.3268469902       -5.3614186929
 C          2.8303065107       -1.2521926600       -4.6270370833
 H          3.1056419496        1.4741690393       -0.2247157281
 H          1.5354167701        2.0017013931       -0.7979519517
 H          2.4126279313        3.0678760178        1.3370428514
 H          0.7717938811        2.3831611273        1.5127655661
 H          2.2028093450       -0.4933423304        3.3598161628
 H          0.6438212200        0.1352502363        2.7539308622
 H          1.3774531104       -1.7216023308        1.3070607683
 H          3.0083203966       -1.0392085255        1.2424652625
 H          3.1043989073       -2.3012414689       -0.2975259721
 H          0.0748779351        2.2555405266       -2.2254585088
 H         -0.3569598922        3.1954644440       -4.6227207376
 H          3.4080289248       -2.0016381238       -5.1455358181
 H          0.8566123966        1.7497994119       -6.3082799567
 H         -0.4065319200       -0.9961530045        0.1450270995
 H         -0.3659849493        0.6602387851        0.7805375639
 H         -0.3555958742        0.3915897951       -0.9494260400
 H          4.1463152997       -0.3405319789        1.4933241393
 H          5.5901359647        0.7362422970        1.5486866417
 H          4.1665765994        1.2245944608        0.6248287898
  42
    -0.657440 !GC
 C          0.0000000000        0.0000000000        0.0000000000
 C          1.5296310644        0.0000000000        0.0000000000
 C          2.0103897004        1.4463921549        0.0000000000
 C          1.7051354837        2.1446103998        1.3242890851
 N          2.2699192085        1.4231035213        2.4424304991
 C          1.8841360523        0.0298712322        2.5337213595
 C          2.1022808944       -0.7560178795        1.2361833970
 S          3.7928632275        1.8112656782        2.9690388498
 O          4.8503431878        1.0475727337        2.3218618929
 O          3.9017753283        3.2501191460        2.8769138174
 C          3.7344956224        1.3510303912        4.6987258628
 N          2.0221347808       -0.7320329774       -1.1700784686
 C          2.9446790874       -1.7391054690       -1.1545639338
 N          3.2314057011       -2.2322833225       -2.3183901014
 C          2.4551299206       -1.5255206748       -3.2013221639
 C          1.6805688900       -0.5691330167       -2.4943704287
 C          0.8007322936        0.2258821033       -3.2469146802
 C         -0.1590104692        1.2603801283       -3.0640480039
 C         -0.6624428829        1.5634950976       -4.2954962073
 N         -0.0844177364        0.7790485471       -5.2456535910
 C          0.8150936944       -0.0441739818       -4.6470598693
 N          1.5512862349       -0.9387918161       -5.3114102986
 C          2.3674264686       -1.6721677718       -4.5873293147
 H          3.0892913504        1.4731362558       -0.1460427453
 H          1.5162859630        1.9666503182       -0.8215462980
 H          2.1658290622        3.1321600370        1.3365642636
 H          0.6312269417        2.2490941898        1.4905402096
 H          2.4815847673       -0.4255364445        3.3220411381
 H          0.8299619498       -0.0018648828        2.8208159640
 H          1.6400596049       -1.7383559218        1.3455992882
 H          3.1690541513       -0.9350827347        1.0974322476
 H          3.3983989627       -2.1076624622       -0.2594466417
 H         -0.4443049872        1.7639986369       -2.1618442280
 H         -1.4026478090        2.2957769327       -4.5486825296
 H          2.9669311706       -2.4010306860       -5.1108077538
 H         -0.2678496262        0.7993578013       -6.2347453918
 H         -0.3915737186        0.5595835861        0.8476267064
 H         -0.3783958902        0.4273553402       -0.9227027674
 H         -0.3626443345       -1.0184743675        0.0795831806
 H          2.9722298045        1.9461655738        5.1769984032
 H          4.7158601817        1.5320784192        5.1126816442
 H          3.4907214812        0.2967985644        4.7401800204
  42
    -0.653705 !GC
 C          0.0000000000        0.0000000000        0.0000000000
 C          1.5301600771        0.0000000000        0.0000000000
 C          1.9781298968        1.4661431972        0.0000000000
 C          2.2612043833        2.0214897382        1.4058375469
 N          3.3398931723        1.3200230452        2.0407977723
 C          3.5094889256       -0.0255020856        1.5712645696
 C          2.1519977526       -0.6963823968        1.3453351053
 S          4.6170169300        2.1243745929        2.6675366121
 O          4.2704573306        3.5239084143        2.6061724025
 O          4.9402417248        1.5788947924        3.9729990772
 C          6.0416060444        1.8650163909        1.5964447803
 N          2.0273100179       -0.7071377442       -1.1820601652
 C          3.0515323828       -1.6106696720       -1.1974573349
 N          3.3128096194       -2.1180566862       -2.3610103197
 C          2.4340828089       -1.5058320949       -3.2169707573
 C          1.6311519541       -0.5841751341       -2.4962215123
 C          0.7455926405        0.2081234487       -3.2470466356
 C         -0.1637192000        1.2903686105       -3.0768012791
 C         -0.6741725168        1.5857207809       -4.3074495309
 N         -0.1455643424        0.7554039851       -5.2465344490
 C          0.7319842587       -0.0871826749       -4.6426462455
 N          1.4482355983       -0.9977492545       -5.3062627794
 C          2.3015828142       -1.6970749335       -4.5922819844
 H          2.8519576368        1.5938579571       -0.6417010134
 H          1.1656248235        2.0435303586       -0.4459624792
 H          2.5746978417        3.0615946411        1.3331085897
 H          1.3783876721        1.9231570652        2.0404171587
 H          4.0900300341       -0.0346750711        0.6368085586
 H          4.0694337811       -0.5531044026        2.3438251368
 H          1.5159449460       -0.4641208718        2.2000042744
 H          2.2649640140       -1.7734013089        1.2821744251
 H          3.6260532634       -1.8631163721       -0.3326350774
 H         -0.4252345763        1.8260948095       -2.1848932562
 H         -1.3849050404        2.3447923549       -4.5663171863
 H          2.9033952122       -2.4219470070       -5.1185574787
 H         -0.3406508452        0.7622372495       -6.2335922121
 H         -0.3753846151       -1.0179208843       -0.0949556494
 H         -0.3861639295        0.4273633202        0.9212646917
 H         -0.3741388134        0.5749163551       -0.8357650777
 H          6.8521639993        2.4044607214        2.0663444165
 H          5.8251666815        2.2727501982        0.6191402186
 H          6.2524289255        0.8058747289        1.5600157511
  42
    -0.653166 !GC
 C          0.0000000000        0.0000000000        0.0000000000
 C          1.5283557816        0.0000000000        0.0000000000
 C          2.0391947774        1.4530934560        0.0000000000
 C          1.8217736785        2.1510509787        1.3423174465
 N          2.2843891098        1.3516371265        2.4595197531
 C          1.7089375336        0.0243180926        2.5395844628
 C          1.9504325911       -0.7891080532        1.2653580762
 S          3.8820458761        1.5283692838        2.9265046003
 O          4.3226373795        2.9127322730        2.9477762450
 O          4.2196118488        0.7609424085        4.1130862184
 C          4.5157839283        0.7148357249        1.4769911758
 N          2.0703492236       -0.6459580478       -1.1989737986
 C          2.8412161103       -1.7752257877       -1.1897852630
 N          3.2389904356       -2.1749458465       -2.3558239800
 C          2.7089721992       -1.2685070974       -3.2367217838
 C          1.9582149683       -0.2932678934       -2.5267789034
 C          1.3287489755        0.7034209534       -3.2923835766
 C          0.4895398211        1.8399930356       -3.1212656406
 C          0.2502237672        2.3527042871       -4.3627544588
 N          0.8865438273        1.6111162156       -5.3104731790
 C          1.5503079208        0.5965747725       -4.6981036662
 N          2.2655461230       -0.3156843119       -5.3599485069
 C          2.8379422229       -1.2446063883       -4.6266352827
 H          3.1053153202        1.4747810739       -0.2228409956
 H          1.5356562337        2.0012696224       -0.7989379008
 H          2.4066665383        3.0692939202        1.3378509840
 H          0.7675510868        2.3804401412        1.5114878552
 H          2.2056970111       -0.4935959277        3.3584008923
 H          0.6445193620        0.1323711814        2.7552411091
 H          1.3779380800       -1.7218321318        1.3058493818
 H          3.0088666583       -1.0396516096        1.2417157244
 H          3.0973901769       -2.3064073553       -0.2988886555
 H          0.0809712115        2.2599577429       -2.2223813957
 H         -0.3417426556        3.2085793514       -4.6176525920
 H          3.4152223613       -1.9938835357       -5.1458583484
 H          0.8746284017        1.7662171352       -6.3046300398
 H         -0.3657626847       -1.0120973990        0.1449715093
 H         -0.3782957493        0.6298692919        0.8046222485
 H         -0.3845215720        0.3664879050       -0.9438157352
 H          5.5942846364        0.7693822452        1.5374467201
 H          4.1625154870        1.2863824776        0.6307225581
 H          4.1666153196       -0.3074524845        1.4586769027
  42
    -0.652142 !GC
 C          0.0000000000        0.0000000000        0.0000000000
 C          1.5283255018        0.0000000000        0.0000000000
 C          2.0401320150        1.4527855996        0.0000000000
 C          1.8237663405        2.1514690138        1.3418515511
 N          2.2883394145        1.3524764168        2.4584534890
 C          1.7113134585        0.0258128440        2.5402021372
 C          1.9489860654       -0.7894771331        1.2662561866
 S          3.8879590746        1.5265676776        2.9198106651
 O          4.3388804732        2.9076389510        2.9096515422
 O          4.2215705509        0.7831891223        4.1228395366
 C          4.5140008440        0.6742032083        1.4893842271
 N          2.0707310257       -0.6452532850       -1.1992545166
 C          2.8377435311       -1.7771421205       -1.1903228428
 N          3.2333416534       -2.1784644727       -2.3564790749
 C          2.7056695805       -1.2706022489       -3.2372313459
 C          1.9588001803       -0.2924632724       -2.5270443620
 C          1.3320702403        0.7059780467       -3.2926306315
 C          0.4962692708        1.8450599803       -3.1216132713
 C          0.2586921686        2.3586418528       -4.3631433341
 N          0.8923516315        1.6148533669       -5.3107365757
 C          1.5529173487        0.5982384712       -4.6983307951
 N          2.2645994589       -0.3166621726       -5.3603212788
 C          2.8341425553       -1.2473662086       -4.6271209901
 H          3.1064046574        1.4736308952       -0.2225919611
 H          1.5371901328        2.0011050915       -0.7992241200
 H          2.4086069885        3.0697253127        1.3357248160
 H          0.7697433504        2.3803989179        1.5125510605
 H          2.2086046766       -0.4918960619        3.3588572020
 H          0.6474777505        0.1355938299        2.7574501640
 H          1.3734693145       -1.7201699703        1.3084410110
 H          3.0063703945       -1.0435568466        1.2414986206
 H          3.0931025236       -2.3087728846       -0.2995730545
 H          0.0877510567        2.2656705262       -2.2228454411
 H         -0.3308927905        3.2161002055       -4.6183372295
 H          3.4086964955       -1.9986240334       -5.1463643088
 H          0.8803446041        1.7694664269       -6.3049397212
 H         -0.3659523001       -1.0119412274        0.1456487063
 H         -0.3780250178        0.6307985692        0.8039658777
 H         -0.3842755864        0.3658181500       -0.9441436998
 H          4.1728573294        1.2351781039        0.6311666007
 H          4.1480861730       -0.3424117675        1.4893186293
 H          5.5931794619        0.7121655222        1.5522148759
  42
    -0.651685 !GC
 C          0.0000000000        0.0000000000        0.0000000000
 C          1.5302458698        0.0000000000        0.0000000000
 C          1.9779563520        1.4661812530        0.0000000000
 C          2.2594611498        2.0218459849        1.4059938758
 N          3.3361979568        1.3189138133        2.0422785155
 C          3.5058578896       -0.0260087169        1.5709260110
 C          2.1485481911       -0.6959263672        1.3408920910
 S          4.6117901989        2.1189867401        2.6771170517
 O          4.2719112697        3.5198794194        2.6097034222
 O          4.9222743111        1.5751193980        3.9863386501
 C          6.0438692374        1.8500024935        1.6185943862
 N          2.0266624261       -0.7066839641       -1.1826708621
 C          3.0511397033       -1.6099140509       -1.1990135079
 N          3.3152394818       -2.1130668047       -2.3637844873
 C          2.4379770514       -1.4982304834       -3.2194359538
 C          1.6332356782       -0.5797022685       -2.4972527380
 C          0.7487838648        0.2143856919       -3.2475045242
 C         -0.1623473580        1.2948529120       -3.0757717479
 C         -0.6699546824        1.5941878581       -4.3065302316
 N         -0.1378807485        0.7680432467       -5.2472228763
 C          0.7388372926       -0.0759340299       -4.6441518970
 N          1.4572398017       -0.9837397599       -5.3092483672
 C          2.3087886389       -1.6854895973       -4.5954692409
 H          2.8522391023        1.5938736840       -0.6410144986
 H          1.1656976969        2.0433338999       -0.4466957892
 H          2.5747019520        3.0614746409        1.3333095981
 H          1.3756398130        1.9251307334        2.0393043075
 H          4.0884594379       -0.0337317768        0.6377796622
 H          4.0633523929       -0.5553606183        2.3440385219
 H          1.5116288849       -0.4673499091        2.1959270863
 H          2.2617867199       -1.7727082388        1.2736952760
 H          3.6236238524       -1.8656801192       -0.3338035317
 H         -0.4267069644        1.8271565508       -2.1827083917
 H         -1.3809395556        2.3533862744       -4.5644062686
 H          2.9133359255       -2.4070979481       -5.1229925163
 H         -0.3306071759        0.7779260209       -6.2346887876
 H         -0.3753485602       -1.0178428468       -0.0958580638
 H         -0.3860859732        0.4265919469        0.9216202842
 H         -0.3742537987        0.5756149688       -0.8352103510
 H          5.7854365170        2.2312320950        0.6408126947
 H          6.2732093904        0.7938545454        1.6009504246
 H          6.8610734987        2.4117801587        2.0480904389
  42
    -0.650980 !GC
 C          0.0000000000        0.0000000000        0.0000000000
 C          1.5283285298        0.0000000000        0.0000000000
 C          1.9501925130        1.4778606650        0.0000000000
 C          1.7134530557        2.1329285013        1.3633842121
 N          2.2930582390        1.3664001060        2.4478384592
 C          1.8311680697       -0.0044375656        2.5406997700
 C          2.0463548798       -0.7783862318        1.2405046292
 S          3.8921955055        1.6685589483        2.8392092731
 O          4.2260419671        3.0826533086        2.8319653516
 O          4.3417489068        0.9402155343        4.0131870494
 C          4.5196192416        0.8912859692        1.3672513084
 N          2.0708196829       -0.6668250047       -1.1873477746
 C          2.8402244205       -0.0535939861       -2.1368117944
 N          3.2432363961       -0.8253466809       -3.0957208954
 C          2.7181626311       -2.0561204663       -2.7993172814
 C          1.9649090196       -1.9786341589       -1.5971537560
 C          1.3388114101       -3.1602878723       -1.1640426139
 C          0.4980623821       -3.6249119620       -0.1140030823
 C          0.2661351889       -4.9500263101       -0.3419402177
 N          0.9087983175       -5.3541274165       -1.4717411538
 C          1.5687133117       -4.2920557883       -2.0023339737
 N          2.2873025211       -4.3627002186       -3.1250322450
 C          2.8545240895       -3.2442394341       -3.5195202750
 H          3.0073153703        1.5913386811       -0.2301269725
 H          1.3730490038        2.0024231905       -0.7687709265
 H          2.2103044907        3.1017273187        1.3532714272
 H          0.6497091546        2.2586239116        1.5724070544
 H          2.4176398069       -0.4919288210        3.3176475358
 H          0.7776514921        0.0184090335        2.8271263512
 H          1.5440564306       -1.7468314669        1.2873293179
 H          3.1125464371       -0.9776277336        1.1388320539
 H          3.0915775994        0.9843941249       -2.1110908825
 H          0.0826507599       -3.0895255824        0.7179964131
 H         -0.3248127680       -5.6245758309        0.2443331057
 H          3.4335114285       -3.2813638781       -4.4291911884
 H          0.9035995397       -6.2784318132       -1.8694736715
 H         -0.3658575714        0.3108843351        0.9739616557
 H         -0.4063120478        0.6520773874       -0.7670454355
 H         -0.3558721336       -1.0124361554       -0.1723416167
 H          5.5984291911        0.9173432852        1.3890669102
 H          4.1108115240        1.4399278466        0.5297773248
 H          4.1315828068       -0.1182238648        1.3592787781
  42
    -0.650255 !GC
 C          0.0000000000        0.0000000000        0.0000000000
 C          1.5295215525        0.0000000000        0.0000000000
 C          2.0988644425        1.4457975349        0.0000000000
 C          1.8844214314        2.1459587286        1.3463432061
 N          2.2725113155        1.3432573157        2.4880640410
 C          1.7045212444        0.0142850294        2.5246828688
 C          2.0060703715       -0.7547445467        1.2394545637
 S          3.7973039651        1.5901413727        3.0902910582
 O          3.9203805952        0.7429691459        4.2555410558
 O          4.8487785339        1.4596043825        2.0914930166
 C          3.7302545708        3.2967809686        3.6285458925
 N          2.0228431297       -0.6148644280       -1.2353613335
 C          2.9435760129       -0.0736984140       -2.0868667742
 N          3.2269696630       -0.8056470564       -3.1183516185
 C          2.4494114980       -1.9270511186       -2.9786539473
 C          1.6781414644       -1.8267885783       -1.7915129809
 C          0.7995091816       -2.8848962242       -1.5068365508
 C         -0.1539522422       -3.2739550482       -0.5248357501
 C         -0.6599617689       -4.4804227010       -0.9123598972
 N         -0.0894064424       -4.8752538761       -2.0832470505
 C          0.8076218380       -3.9329601552       -2.4737374992
 N          1.5382313938       -4.0278985936       -3.5877387110
 C          2.3549393402       -3.0276341198       -3.8334601456
 H          3.1651827598        1.4196839555       -0.2273892742
 H          1.6359135907        2.0502374556       -0.7817068415
 H          2.4829626439        3.0554589232        1.3661785902
 H          0.8308519470        2.4089988695        1.4712331581
 H          2.1653920664       -0.4901580301        3.3736609015
 H          0.6311340403        0.1050413422        2.7020952257
 H          1.5114124158       -1.7266914397        1.2574289280
 H          3.0846795527       -0.8946460238        1.1849228696
 H          3.3981845388        0.8814130312       -1.9319121147
 H         -0.4327732343       -2.7723246162        0.3805543629
 H         -1.3972776587       -5.0812720349       -0.4187632705
 H          2.9507440805       -3.0889185403       -4.7312382087
 H         -0.2760001367       -5.7271216587       -2.5851169245
 H         -0.3852179363       -1.0082105962       -0.1263853890
 H         -0.3783230390        0.4254977851        0.9235290240
 H         -0.3692435100        0.6019983056       -0.8247802229
 H          4.7038045658        3.5341784282        4.0365618322
 H          2.9606234499        3.3664228434        4.3837814987
 H          3.5052544235        3.9146475922        2.7716044943
  42
    -0.649230 !GC
 C          0.0000000000        0.0000000000        0.0000000000
 C          1.5294596052        0.0000000000        0.0000000000
 C          2.1320233886        1.4182606567        0.0000000000
 C          1.8818559659        2.0809803814        1.3546939255
 N          2.2212516129        1.2136716109        2.4564948977
 C          1.6600068725       -0.1167944391        2.4242494054
 C          2.0342564023       -0.8832512656        1.1483133932
 S          3.6123923851        1.4633777817        3.2757624411
 O          4.1480488619        2.7151447009        2.7930402858
 O          3.3510924971        1.3686303350        4.6995748792
 C          4.7813975971        0.1653219722        2.8354489822
 N          2.0215862871       -0.6412981361       -1.2224215962
 C          3.0189368891       -0.1680620738       -2.0279382411
 N          3.2297677884       -0.8662957391       -3.0991208839
 C          2.3421752746       -1.9087884069       -3.0213435162
 C          1.5922548196       -1.8065732259       -1.8184049004
 C          0.7252205559       -2.8684654775       -1.5131759638
 C         -0.1079643207       -3.3226681659       -0.4530520285
 C         -0.6483825531       -4.5116294865       -0.8483222380
 N         -0.2086339771       -4.8365613698       -2.0946461922
 C          0.6462112867       -3.8721177828       -2.5236080626
 N          1.3004072162       -3.9309645322       -3.6862237594
 C          2.1545974778       -2.9601328723       -3.9220405697
 H          3.2092835705        1.3567531132       -0.1285112832
 H          1.7132328008        2.0259623907       -0.8024507571
 H          2.5223406542        2.9615371648        1.4098049099
 H          0.8337175986        2.3662206223        1.4641362313
 H          2.0591150344       -0.6418564364        3.2879765360
 H          0.5750571188       -0.0039097805        2.5084070515
 H          1.5489360006       -1.8611513480        1.1781330370
 H          3.1109847874       -1.0714412911        1.1260164603
 H          3.6164638699        0.6838879996       -1.7840251142
 H         -0.2809280036       -2.8782997449        0.5072590023
 H         -1.3209386261       -5.1479449913       -0.3086754439
 H          2.7150325435       -3.0139348799       -4.8426064959
 H         -0.4359887376       -5.6679349760       -2.6136099528
 H         -0.3861687356       -0.9975495850        0.1916154866
 H         -0.3780552463        0.6961798709        0.7441591854
 H         -0.3702229818        0.3127058702       -0.9696441314
 H          4.8578650114        0.1715816452        1.7586940665
 H          4.3689788361       -0.7643351590        3.2019133406
 H          5.7394503441        0.3811201858        3.2892792272
  42
    -0.649201 !GC
 C          0.0000000000        0.0000000000        0.0000000000
 C          1.5283091003        0.0000000000        0.0000000000
 C          2.0401166333        1.4527702585        0.0000000000
 C          1.8248236412        2.1511830061        1.3421889453
 N          2.2871820675        1.3516342418        2.4593380753
 C          1.7090838329        0.0254308136        2.5401646597
 C          1.9492361110       -0.7892998744        1.2663818938
 S          3.8857933417        1.5216485165        2.9257961753
 O          4.3455813643        2.8995412308        2.9020102995
 O          4.2090562323        0.7900420755        4.1387528508
 C          4.5127803000        0.6467997352        1.5094797855
 N          2.0707213694       -0.6451693420       -1.1992711827
 C          2.8401825794       -1.7754340892       -1.1905015061
 N          3.2356906274       -2.1764088304       -2.3568316746
 C          2.7062077350       -1.2694987120       -3.2374845648
 C          1.9576907056       -0.2927571440       -2.5271224135
 C          1.3287870847        0.7045360548       -3.2924459762
 C          0.4915925863        1.8425633408       -3.1211826615
 C          0.2509370588        2.3543024866       -4.3629024901
 N          0.8847158473        1.6109244094       -5.3107645836
 C          1.5480797816        0.5960729990       -4.6984031537
 N          2.2607250766       -0.3178854812       -5.3606156087
 C          2.8333188223       -1.2467723116       -4.6275020852
 H          3.1062367885        1.4741021298       -0.2235717536
 H          1.5364931201        2.0015136277       -0.7985507434
 H          2.4116692697        3.0681635164        1.3359845836
 H          0.7712353105        2.3822892506        1.5126438467
 H          2.2040977749       -0.4924997873        3.3600481655
 H          0.6448214656        0.1358634950        2.7550213444
 H          1.3752339158       -1.7209315373        1.3076872409
 H          3.0071508392       -1.0413076358        1.2420395830
 H          3.0969254131       -2.3064520285       -0.2997299459
 H          0.0845566341        2.2641156406       -2.2224296628
 H         -0.3404952584        3.2105774606       -4.6179163530
 H          3.4073335802       -1.9982084940       -5.1472124337
 H          0.8711469037        1.7647606030       -6.3051640945
 H         -0.3656703913       -1.0122209123        0.1461321395
 H         -0.3781683932        0.6310722162        0.8039348964
 H         -0.3841684768        0.3652191918       -0.9444100159
 H          4.1489042889       -0.3691362206        1.5355510780
 H          5.5900589013        0.7121106119        1.5630434131
 H          4.1631772247        1.1761772870        0.6319082774
  42
    -0.648876 !GC
 C          0.0000000000        0.0000000000        0.0000000000
 C          1.5300446355        0.0000000000        0.0000000000
 C          1.9786183742        1.4657078499        0.0000000000
 C          2.2805893424        2.0132166018        1.4047919896
 N          3.3658865370        1.3075787843        2.0254386985
 C          3.5126163516       -0.0436235387        1.5639238053
 C          2.1433023332       -0.6919089048        1.3442341161
 S          4.6676483482        2.1140700327        2.5987204568
 O          4.3179427874        3.5133196949        2.5492357680
 O          5.0411709325        1.5715693838        3.8918546796
 C          6.0506490851        1.8517616706        1.4750192009
 N          2.0285520259       -0.7068800390       -1.1817790306
 C          3.0569602738       -1.6056018412       -1.1968869781
 N          3.3197313992       -2.1130742783       -2.3599837209
 C          2.4372146600       -1.5064528744       -3.2159929425
 C          1.6310526700       -0.5875670175       -2.4958664770
 C          0.7427681591        0.2006652126       -3.2476763916
 C         -0.1684721452        1.2816019324       -3.0795204360
 C         -0.6801179465        1.5733127979       -4.3104995676
 N         -0.1499526728        0.7423600052       -5.2480258956
 C          0.7307328155       -0.0962589570       -4.6429718470
 N          1.4493309631       -1.0060850612       -5.3054268536
 C          2.3047963433       -1.7018432002       -4.5903321048
 H          2.8443338270        1.5958046250       -0.6520288978
 H          1.1611281552        2.0456916297       -0.4332279901
 H          2.5969929920        3.0524457502        1.3318973353
 H          1.4051841986        1.9156583185        2.0498559291
 H          4.0908153545       -0.0682581232        0.6284690775
 H          4.0656412131       -0.5751627334        2.3386998188
 H          1.5136514362       -0.4488494156        2.2007305233
 H          2.2407713487       -1.7705867474        1.2831795193
 H          3.6340089498       -1.8541180511       -0.3325342752
 H         -0.4305342050        1.8190367052       -2.1887226963
 H         -1.3927642067        2.3301354994       -4.5706792899
 H          2.9108200976       -2.4237993006       -5.1160097661
 H         -0.3441010967        0.7471112058       -6.2353363011
 H         -0.3859155183        0.4175617356        0.9255477839
 H         -0.3934131044        0.5714763220       -0.8364566051
 H         -0.3561021037       -1.0193029598       -0.0953749536
 H          6.9116733038        2.3587457062        1.8842407271
 H          5.7428651556        2.2879314679        0.5346643919
 H          6.2189076686        0.7892999692        1.3569972176
  42
    -0.648048 !GC
 C          0.0000000000        0.0000000000        0.0000000000
 C          1.5283210860        0.0000000000        0.0000000000
 C          1.9506558687        1.4777891756        0.0000000000
 C          1.7155608565        2.1328998513        1.3635803036
 N          2.2940388874        1.3655725817        2.4480085480
 C          1.8298963559       -0.0045588516        2.5407889789
 C          2.0460086343       -0.7784655987        1.2406421506
 S          3.8934883424        1.6623630203        2.8420722050
 O          4.2379262300        3.0735554187        2.8138903503
 O          4.3319665677        0.9494438843        4.0296543353
 C          4.5221985827        0.8547132139        1.3871194113
 N          2.0705034221       -0.6666427432       -1.1875828980
 C          2.8382458310       -0.0530284240       -2.1381827411
 N          3.2402155425       -0.8245806684       -3.0977038936
 C          2.7164103670       -2.0556528992       -2.8004072980
 C          1.9653961189       -1.9786849627       -1.5968717586
 C          1.3408155612       -3.1607741641       -1.1627613990
 C          0.5017214967       -3.6257062845       -0.1115115137
 C          0.2712520029       -4.9512019951       -0.3385494615
 N          0.9128556923       -5.3550347401       -1.4690236697
 C          1.5705760686       -4.2924621218       -2.0010744808
 N          2.2876572248       -4.3627124307       -3.1246422703
 C          2.8521708145       -3.2436663547       -3.5207946982
 H          3.0075031904        1.5918060026       -0.2313822094
 H          1.3727206811        2.0028155449       -0.7677913409
 H          2.2145551780        3.1005536954        1.3530308507
 H          0.6521045088        2.2607856781        1.5728843756
 H          2.4143184615       -0.4926084929        3.3189448943
 H          0.7759707294        0.0197522344        2.8256334222
 H          1.5438915017       -1.7470053569        1.2868551962
 H          3.1122428170       -0.9772673239        1.1390410511
 H          3.0880013543        0.9853757711       -2.1135924970
 H          0.0867162542       -3.0903831552        0.7208199394
 H         -0.3176609475       -5.6263184108        0.2490752838
 H          3.4316405354       -3.2810142808       -4.4302330818
 H          0.9086151654       -6.2795055039       -1.8661915383
 H         -0.3661839434        0.3138521759        0.9728958599
 H         -0.4064039026        0.6495311918       -0.7691494015
 H         -0.3554618818       -1.0130982292       -0.1691073027
 H          4.1808141955       -0.1690805255        1.4382870195
 H          5.6011318246        0.8898768740        1.4547917344
 H          4.1588565873        1.3664943052        0.5076619846
  42
    -0.647509 !GC
 C          0.0000000000        0.0000000000        0.0000000000
 C          1.5283323147        0.0000000000        0.0000000000
 C          1.9494792286        1.4780906188        0.0000000000
 C          1.7153751509        2.1325802402        1.3642719646
 N          2.2940152319        1.3648261529        2.4483987707
 C          1.8305307987       -0.0055038189        2.5404320654
 C          2.0474305523       -0.7783644781        1.2400176377
 S          3.8935948352        1.6626819268        2.8414285659
 O          4.2287101887        3.0765251618        2.8485131217
 O          4.3429173068        0.9219642991        4.0076509958
 C          4.5197543457        0.9004696997        1.3610651801
 N          2.0705746331       -0.6671343160       -1.1872699281
 C          2.8343124112       -0.0525773959       -2.1404465674
 N          3.2363880397       -0.8242745764       -3.0998168245
 C          2.7165349660       -2.0564083662       -2.7998660605
 C          1.9670391735       -1.9797188391       -1.5952282353
 C          1.3459858137       -3.1627090176       -1.1584918863
 C          0.5090901010       -3.6282336872       -0.1057532307
 C          0.2819644436       -4.9547857342       -0.3302025477
 N          0.9232604058       -5.3587262946       -1.4608884787
 C          1.5779155806       -4.2952593538       -1.9952033975
 N          2.2933267927       -4.3653061821       -3.1199877726
 C          2.8550550026       -3.2454357534       -3.5183433738
 H          3.0058932281        1.5922946673       -0.2326571989
 H          1.3702805084        2.0028824605       -0.7670942438
 H          2.2139321966        3.1005571131        1.3543967910
 H          0.6519947213        2.2601482328        1.5741398233
 H          2.4154112081       -0.4940713454        3.3178865718
 H          0.7765874635        0.0182266468        2.8251868996
 H          1.5468604041       -1.7477358616        1.2859361588
 H          3.1141737118       -0.9754339889        1.1386681018
 H          3.0823245962        0.9863652660       -2.1169917715
 H          0.0920892689       -3.0923112487        0.7249798910
 H         -0.3052311525       -5.6301968074        0.2588187176
 H          3.4310157651       -3.2820039765       -4.4300137033
 H          0.9200255050       -6.2837326229       -1.8571181995
 H         -0.3657040810        0.3153354536        0.9725932983
 H         -0.4063881550        0.6488639671       -0.7698087615
 H         -0.3560874462       -1.0131066573       -0.1679157349
 H          4.1458412151        1.4324457375        0.4982990555
 H          4.1876681197       -0.1272498122        1.3869898320
 H          5.5986832179        0.9430394479        1.4222415087
  42
    -0.647367 !GC
 C          0.0000000000        0.0000000000        0.0000000000
 C          1.5283865660        0.0000000000        0.0000000000
 C          1.9512680227        1.4775638057        0.0000000000
 C          1.7123957894        2.1320979852        1.3632038937
 N          2.2949289874        1.3668098631        2.4471547568
 C          1.8352228534       -0.0045960266        2.5409369690
 C          2.0466857502       -0.7789695820        1.2404087851
 S          3.8943717177        1.6768178781        2.8314398142
 O          4.2167078758        3.0935043263        2.8354646353
 O          4.3576054579        0.9410588550        3.9954270017
 C          4.5179831686        0.9217966957        1.3462735378
 N          2.0702260068       -0.6668685345       -1.1876023485
 C          2.8451839591       -0.0554233895       -2.1337982937
 N          3.2436336733       -0.8262880702       -3.0953809403
 C          2.7090469574       -2.0542737723       -2.8046282109
 C          1.9558368034       -1.9763744822       -1.6023181135
 C          1.3223660767       -3.1557321852       -1.1737566179
 C          0.4812874263       -3.6195684398       -0.1235691529
 C          0.2389599573       -4.9417020259       -0.3578501987
 N          0.8754641136       -5.3446307842       -1.4915704843
 C          1.5424248090       -4.2849624483       -2.0180090671
 N          2.2596389763       -4.3556792949       -3.1415715076
 C          2.8359445593       -3.2400124994       -3.5304945828
 H          3.0089230304        1.5901844589       -0.2282871110
 H          1.3754522003        2.0022002655       -0.7696585861
 H          2.2061267703        3.1024644685        1.3529293093
 H          0.6483408464        2.2545746917        1.5724198812
 H          2.4248190251       -0.4914287733        3.3159841439
 H          0.7825428959        0.0173310413        2.8305575682
 H          1.5424180896       -1.7463516087        1.2887335058
 H          3.1122853939       -0.9810770861        1.1377623131
 H          3.1045145366        0.9805213892       -2.1034625031
 H          0.0733881796       -3.0862216437        0.7132828443
 H         -0.3552586942       -5.6148929134        0.2266725562
 H          3.4157602275       -3.2777030806       -4.4396987548
 H          0.8626352412       -6.2669594195       -1.8938567926
 H         -0.3784585039       -0.9973540659       -0.2216182834
 H         -0.3883119306        0.3474572653        0.9558113658
 H         -0.3619580993        0.6634373575       -0.7718299970
 H          4.1250762604       -0.0855336553        1.3194800631
 H          5.5969101850        0.9422087216        1.3683851191
 H          4.1117977855        1.4881743252        0.5190830877
  42
    -0.646247 !GC
 C          0.0000000000        0.0000000000        0.0000000000
 C          1.5301964128        0.0000000000        0.0000000000
 C          1.9782895150        1.4661076343        0.0000000000
 C          2.2609734551        2.0212898348        1.4060058734
 N          3.3384035578        1.3183897179        2.0412236984
 C          3.5076076084       -0.0266638177        1.5705333491
 C          2.1499662060       -0.6965008744        1.3422252995
 S          4.6129729805        2.1186580307        2.6773688713
 O          4.2684708773        3.5188480380        2.6189985837
 O          4.9286680308        1.5680337547        3.9825169833
 C          6.0428965042        1.8611966121        1.6130696970
 N          2.0270221453       -0.7068625487       -1.1823704102
 C          3.0523911725       -1.6090906591       -1.1982324626
 N          3.3143710103       -2.1155022553       -2.3620709184
 C          2.4350703340       -1.5036795858       -3.2177556405
 C          1.6309204545       -0.5836118044       -2.4965029714
 C          0.7446028507        0.2080543035       -3.2471415667
 C         -0.1658820892        1.2892610785       -3.0765137252
 C         -0.6769165484        1.5843215512       -4.3069871132
 N         -0.1476736143        0.7547016884       -5.2462990016
 C          0.7309667221       -0.0870395213       -4.6427801702
 N          1.4481123289       -0.9966490287       -5.3067428426
 C          2.3026326832       -1.6949080133       -4.5930450253
 H          2.8522455880        1.5937471770       -0.6414986829
 H          1.1659474421        2.0436373289       -0.4460439615
 H          2.5758962913        3.0609979641        1.3334581242
 H          1.3776587729        1.9238376411        2.0400011646
 H          4.0892132387       -0.0350507851        0.6367556197
 H          4.0661338944       -0.5556203184        2.3431972708
 H          1.5135380336       -0.4661776719        2.1971582195
 H          2.2627696231       -1.7733814123        1.2766801897
 H          3.6270291932       -1.8615866710       -0.3334965084
 H         -0.4273348444        1.8249711303       -2.1845184637
 H         -1.3883623255        2.3428253259       -4.5656077709
 H          2.9048097971       -2.4193615681       -5.1194806252
 H         -0.3429371208        0.7613942724       -6.2333210564
 H         -0.3935950807        0.4135543304        0.9245334614
 H         -0.3784851828        0.5748229359       -0.8409876126
 H         -0.3636729571       -1.0172160107       -0.0838453971
 H          5.7897269239        2.2726527920        0.6460953841
 H          6.2593989572        0.8030412114        1.5656539554
 H          6.8667755824        2.4003733668        2.0586743253
  42
    -0.642989 !GC
 C          0.0000000000        0.0000000000        0.0000000000
 C          1.5283984256        0.0000000000        0.0000000000
 C          1.9513398012        1.4775201465        0.0000000000
 C          1.7113506302        2.1322385207        1.3629268874
 N          2.2936169310        1.3674190138        2.4474431755
 C          1.8342447050       -0.0043260195        2.5406258125
 C          2.0469318987       -0.7786735245        1.2403224049
 S          3.8944126437        1.6762043871        2.8284278291
 O          4.2183515347        3.0924389023        2.8306177565
 O          4.3592246388        0.9410581811        3.9919562827
 C          4.5142376841        0.9191695345        1.3429427678
 N          2.0699532028       -0.6672045839       -1.1875428191
 C          2.8450091249       -0.0557735021       -2.1336843797
 N          3.2428248998       -0.8264776042       -3.0956309587
 C          2.7086606428       -2.0545908171       -2.8045988620
 C          1.9558540910       -1.9768215630       -1.6020876556
 C          1.3228004791       -3.1563983915       -1.1733473884
 C          0.4824757007       -3.6207654488       -0.1228580683
 C          0.2409803435       -4.9430628261       -0.3567149915
 N          0.8767474518       -5.3455809137       -1.4910266772
 C          1.5428334976       -4.2854975929       -2.0178093198
 N          2.2591074218       -4.3558668549       -3.1420231736
 C          2.8352242299       -3.2401104537       -3.5309014949
 H          3.0092059499        1.5900649687       -0.2273466612
 H          1.3762860768        2.0021903442       -0.7702162976
 H          2.2046068017        3.1028143002        1.3528531455
 H          0.6471956287        2.2541840546        1.5716963188
 H          2.4234941933       -0.4910312147        3.3160209240
 H          0.7813991715        0.0175159220        2.8296799195
 H          1.5436399658       -1.7466071728        1.2884055823
 H          3.1127517694       -0.9797430649        1.1379457145
 H          3.1042836285        0.9802000534       -2.1032833358
 H          0.0741696468       -3.0873837141        0.7137162926
 H         -0.3524445522       -5.6165571472        0.2282593437
 H          3.4137234293       -3.2773853405       -4.4409475216
 H          0.8640495209       -6.2678335513       -1.8935241419
 H         -0.3783507317       -0.9975785289       -0.2210692330
 H         -0.3880829803        0.3480044560        0.9558415116
 H         -0.3619483939        0.6631180325       -0.7722183465
 H          4.1505051133        1.5181161028        0.5203691895
 H          4.1697380375       -0.1036977092        1.2917327120
 H          5.5930654398        0.9770433445        1.3955722722
  42
    -0.642754 !GC
 C          0.0000000000        0.0000000000        0.0000000000
 C          1.5283532582        0.0000000000        0.0000000000
 C          2.0397932477        1.4528697300        0.0000000000
 C          1.8200738422        2.1511638003        1.3416456126
 N          2.2833794363        1.3526154269        2.4591958849
 C          1.7093383392        0.0247242026        2.5397911038
 C          1.9495970837       -0.7891039965        1.2654776822
 S          3.8808734974        1.5328425872        2.9252840435
 O          4.3206679313        2.9175388031        2.9368267155
 O          4.2190050418        0.7739770926        4.1172600766
 C          4.5149255368        0.7092001341        1.4816180216
 N          2.0704935649       -0.6456795517       -1.1990620338
 C          2.8367963642       -1.7780566986       -1.1904974775
 N          3.2347524897       -2.1775106698       -2.3565698314
 C          2.7099449157       -1.2674344932       -3.2367986354
 C          1.9615773010       -0.2905846493       -2.5264950727
 C          1.3369236428        0.7095717504       -3.2915264071
 C          0.5006068300        1.8482406574       -3.1199997353
 C          0.2661862438        2.3645111319       -4.3609427508
 N          0.9027977477        1.6231867664       -5.3086640832
 C          1.5616177665        0.6050249965       -4.6969197226
 N          2.2749165182       -0.3085662976       -5.3590388052
 C          2.8419351965       -1.2412758135       -4.6263950569
 H          3.1064730730        1.4739519038       -0.2205937450
 H          1.5380774597        2.0007385841       -0.8002984089
 H          2.4035870879        3.0702350425        1.3371185028
 H          0.7654287986        2.3790530331        1.5099767105
 H          2.2075694899       -0.4923921911        3.3582194201
 H          0.6450947325        0.1318609865        2.7567967023
 H          1.3758492099       -1.7210522379        1.3063841113
 H          3.0075836091       -1.0412083782        1.2416360381
 H          3.0893429288       -2.3117691196       -0.3001671979
 H          0.0901495486        2.2668168835       -2.2213704988
 H         -0.3224842230        3.2227863898       -4.6155539719
 H          3.4167685777       -1.9922222713       -5.1459167971
 H          0.8937098310        1.7803699975       -6.3025366218
 H         -0.3657370106       -1.0128414339        0.1406858153
 H         -0.3779833099        0.6268100665        0.8072542301
 H         -0.3841738713        0.3705015807       -0.9425109814
 H          4.1340809435        1.2547068049        0.6300925051
 H          4.1123278525       -0.2933368533        1.5045227664
 H          5.5962806763        0.7083583357        1.5069018381
  42
    -0.640698 !GC
 C          0.0000000000        0.0000000000        0.0000000000
 C          1.5283613328        0.0000000000        0.0000000000
 C          2.0408031368        1.4525299273        0.0000000000
 C          1.8228131298        2.1509922438        1.3416408060
 N          2.2876398416        1.3524352907        2.4585619588
 C          1.7117787202        0.0252985679        2.5404797247
 C          1.9487313888       -0.7896074878        1.2661246712
 S          3.8871830803        1.5294134868        2.9192000287
 O          4.3390442392        2.9098925576        2.8946256466
 O          4.2199480983        0.7985309097        4.1302273386
 C          4.5130132159        0.6609463953        1.4983453909
 N          2.0702862516       -0.6453843577       -1.1993775058
 C          2.8337545057       -1.7796565132       -1.1910477485
 N          3.2312893512       -2.1794856757       -2.3571080259
 C          2.7096041081       -1.2674267347       -3.2370508280
 C          1.9634742976       -0.2889272139       -2.5265980722
 C          1.3412375740        0.7127237800       -3.2916649557
 C          0.5057471518        1.8520873327       -3.1205421190
 C          0.2746963508        2.3703166560       -4.3613545946
 N          0.9111831295        1.6285689065       -5.3087232586
 C          1.5671698816        0.6086515031       -4.6968628990
 N          2.2789900420       -0.3060948798       -5.3589575569
 C          2.8430215841       -1.2406770109       -4.6264709534
 H          3.1074945971        1.4728896342       -0.2209857259
 H          1.5392317191        2.0008894441       -0.8000719307
 H          2.4066799177        3.0698641583        1.3355324045
 H          0.7684735642        2.3788997370        1.5115594968
 H          2.2100697934       -0.4919274290        3.3588889107
 H          0.6480142033        0.1343749348        2.7585570821
 H          1.3724466939       -1.7198386802        1.3084042340
 H          3.0058720152       -1.0446313318        1.2411394381
 H          3.0839981684       -2.3148765313       -0.3010046730
 H          0.0926000069        2.2691846076       -2.2224470207
 H         -0.3125447953        3.2294517282       -4.6162289805
 H          3.4174919843       -1.9920375483       -5.1458368727
 H          0.9033886800        1.7863353889       -6.3025345503
 H         -0.3783520784       -1.0158055935        0.1101108127
 H         -0.4063403460        0.6397075812        0.7774202369
 H         -0.3435771391        0.3713828838       -0.9577445172
 H          4.1035809836       -0.3390239208        1.5431520230
 H          5.5919207660        0.6657116539        1.5310401802
 H          4.1245382226        1.1693627461        0.6261295235
  42
    -0.638264 !GC
 C          0.0000000000        0.0000000000        0.0000000000
 C          1.5298185466        0.0000000000        0.0000000000
 C          2.1304718757        1.4175873756        0.0000000000
 C          1.8747995591        2.0929876387        1.3470878562
 N          2.2056958538        1.2328667493        2.4615904098
 C          1.6316425967       -0.0952076858        2.4055131751
 C          1.9904270807       -0.8431942141        1.1174465539
 S          3.6955415717        1.4197284351        3.1637002383
 O          3.4939968752        1.3778282070        4.5925936562
 O          4.7026599266        0.5087512802        2.6322637924
 C          4.1202495287        3.1034859313        2.7273566120
 N          2.0215253575       -0.6444672900       -1.2207743840
 C          3.0282728445       -0.1831069659       -2.0202952342
 N          3.2380610154       -0.8842377949       -3.0900324036
 C          2.3361234003       -1.9151790476       -3.0179394603
 C          1.5806277547       -1.8035638016       -1.8199344547
 C          0.7020861951       -2.8568500303       -1.5172952036
 C         -0.1373638133       -3.3046662462       -0.4591910604
 C         -0.6910410243       -4.4861009196       -0.8584376437
 N         -0.2522434514       -4.8134196621       -2.1045401188
 C          0.6139482393       -3.8574740985       -2.5297518033
 N          1.2720018224       -3.9230259410       -3.6901096475
 C          2.1410386220       -2.9639109569       -3.9199730468
 H          3.2082899997        1.3543563765       -0.1206948820
 H          1.7140498141        2.0178768231       -0.8088925017
 H          2.5066296084        2.9786842411        1.4151350386
 H          0.8302402771        2.3932297024        1.4295286889
 H          2.0220715412       -0.6300563759        3.2695370039
 H          0.5488480044        0.0201402129        2.5175286025
 H          1.4777738688       -1.8072999691        1.1236634781
 H          3.0619711207       -1.0592175689        1.0985474605
 H          3.6323921249        0.6642887491       -1.7756403592
 H         -0.3026003247       -2.8631798745        0.5035071088
 H         -1.3715783183       -5.1162206882       -0.3217299186
 H          2.7061842286       -3.0228825616       -4.8375178565
 H         -0.4922740681       -5.6380949447       -2.6285873920
 H         -0.4030689806        0.3219001114       -0.9535533879
 H         -0.3673204475       -0.9989204317        0.2313390825
 H         -0.3631141515        0.6717994924        0.7693623845
 H          4.4023668785        3.6461374617        3.6164639208
 H          3.2280110205        3.5126535212        2.2722244122
 H          4.9149613797        3.0625313986        1.9946889114
  42
    -0.635306 !GC
 C          0.0000000000        0.0000000000        0.0000000000
 C          1.5283302961        0.0000000000        0.0000000000
 C          2.0396927637        1.4529354037        0.0000000000
 C          1.8246023643        2.1508909932        1.3425739633
 N          2.2870315462        1.3512149855        2.4596497117
 C          1.7091105693        0.0248369688        2.5401223007
 C          1.9497785733       -0.7892725997        1.2660996662
 S          3.8865186163        1.5204216960        2.9237458961
 O          4.3389810335        2.9011776187        2.9286242424
 O          4.2180521700        0.7642283459        4.1191549639
 C          4.5131432433        0.6830377737        1.4847170492
 N          2.0703615251       -0.6457942283       -1.1991017200
 C          2.8427485139       -1.7740226538       -1.1893485482
 N          3.2393126853       -2.1750156514       -2.3552998937
 C          2.7070823483       -1.2705254888       -3.2367918831
 C          1.9566209348       -0.2947532117       -2.5272359888
 C          1.3255452134        0.7003160090       -3.2936889543
 C          0.4857640007        1.8366229606       -3.1235164840
 C          0.2449284626        2.3473827449       -4.3655954397
 N          0.8801326849        1.6043151456       -5.3127514349
 C          1.5450986473        0.5910494460       -4.6995268880
 N          2.2597298533       -0.3220028603       -5.3609202105
 C          2.8339277822       -1.2491718999       -4.6268526562
 H          3.1055392599        1.4743192338       -0.2242808686
 H          1.5354135214        2.0016221238       -0.7981503885
 H          2.4110196046        3.0681869093        1.3371590601
 H          0.7709813374        2.3818259136        1.5131300628
 H          2.2044816292       -0.4935198670        3.3595276437
 H          0.6448379442        0.1349221187        2.7550328158
 H          1.3766521982       -1.7214851688        1.3071687631
 H          3.0080110756       -1.0403465322        1.2420998641
 H          3.1009335670       -2.3035942738       -0.2981736107
 H          0.0779327212        2.2578344512       -2.2249559805
 H         -0.3479994871        3.2022995944       -4.6215184306
 H          3.4114317278       -1.9987347661       -5.1454324041
 H          0.8670552935        1.7577580210       -6.3071734232
 H         -0.3782686956        0.6336978829        0.8015463661
 H         -0.3841734624        0.3623111825       -0.9455298823
 H         -0.3657962634       -1.0114664348        0.1492976698
 H          5.5896217781        0.6898922282        1.5769061471
 H          4.1612021291        1.1931801524        0.6008910037
 H          4.1548357717       -0.3378804186        1.5288431337
  42
    -0.632474 !GC
 C          0.0000000000        0.0000000000        0.0000000000
 C          1.5283318101        0.0000000000        0.0000000000
 C          1.9504585358        1.4777532290        0.0000000000
 C          1.7156071465        2.1319990466        1.3639125458
 N          2.3009855169        1.3663651592        2.4458929014
 C          1.8392367388       -0.0042496269        2.5415168100
 C          2.0474430238       -0.7793592770        1.2408902745
 S          3.9034887519        1.6697270116        2.8232965667
 O          4.2367639955        3.0838061678        2.8046259379
 O          4.3623582675        0.9488370018        3.9983040093
 C          4.5202252912        0.8838870183        1.3511952466
 N          2.0706529599       -0.6659735761       -1.1879230984
 C          2.8453797625       -0.0531957088       -2.1333995865
 N          3.2398299648       -0.8213997494       -3.0987423840
 C          2.7024921061       -2.0489801282       -2.8115454023
 C          1.9523931700       -1.9737717154       -1.6069832351
 C          1.3170869235       -3.1531037316       -1.1812141927
 C          0.4776905916       -3.6191144491       -0.1307236086
 C          0.2299400030       -4.9391894947       -0.3705293521
 N          0.8624107644       -5.3391833703       -1.5076229825
 C          1.5317683540       -4.2793927848       -2.0308461851
 N          2.2457859938       -4.3476147664       -3.1566654887
 C          2.8244919263       -3.2321036274       -3.5423726508
 H          3.0072734915        1.5911542961       -0.2315407534
 H          1.3722820071        2.0027276030       -0.7675760657
 H          2.2101130198        3.1019467628        1.3520934202
 H          0.6523287663        2.2550272971        1.5764541375
 H          2.4293540584       -0.4914683969        3.3159660316
 H          0.7871240158        0.0195470901        2.8330300567
 H          1.5420378649       -1.7461371446        1.2903052537
 H          3.1126023830       -0.9824991690        1.1362692518
 H          3.1076858392        0.9818371902       -2.0995854751
 H          0.0749533647       -3.0882612457        0.7101395829
 H         -0.3652316404       -5.6130852927        0.2122670584
 H          3.4011924157       -3.2673471052       -4.4536169699
 H          0.8447335072       -6.2593989924       -1.9147131456
 H         -0.3785585224       -0.9969984847       -0.2231561966
 H         -0.3884336581        0.3460270924        0.9561688748
 H         -0.3622430991        0.6643358669       -0.7709356367
 H          5.5988777528        0.9510680217        1.3943447128
 H          4.1457017134        1.4614984634        0.5182944219
 H          4.1839073674       -0.1426199629        1.3251582407
  42
    -0.631492 !GC
 C          0.0000000000        0.0000000000        0.0000000000
 C          1.5283255018        0.0000000000        0.0000000000
 C          2.0396019970        1.4529715439        0.0000000000
 C          1.8257670336        2.1506918615        1.3429102540
 N          2.2894417356        1.3508349144        2.4593134403
 C          1.7105472561        0.0249092049        2.5403158903
 C          1.9496674718       -0.7896683088        1.2663600474
 S          3.8899883250        1.5180627958        2.9205645691
 O          4.3449120772        2.8979976204        2.9216227255
 O          4.2219029361        0.7638904409        4.1172120702
 C          4.5131055580        0.6758360497        1.4826804530
 N          2.0706852615       -0.6455783099       -1.1991089192
 C          2.8426720256       -1.7741242835       -1.1893840405
 N          3.2375142193       -2.1762967906       -2.3555049807
 C          2.7041865286       -1.2725383322       -3.2371040198
 C          1.9552441519       -0.2956067476       -2.5273982082
 C          1.3237984676        0.6992701278       -3.2938665027
 C          0.4851195357        1.8363835145       -3.1235941463
 C          0.2429629503        2.3461594579       -4.3658532650
 N          0.8762545090        1.6016981070       -5.3131471665
 C          1.5414047438        0.5885917220       -4.6999000446
 N          2.2545552345       -0.3254706663       -5.3614834118
 C          2.8292729814       -1.2522501326       -4.6273765680
 H          3.1052560644        1.4745357585       -0.2252238097
 H          1.5346047990        2.0018266896       -0.7975958223
 H          2.4122272005        3.0679585029        1.3368893574
 H          0.7723119455        2.3814513883        1.5147642179
 H          2.2060146798       -0.4937965733        3.3594427786
 H          0.6464959877        0.1359004806        2.7558388949
 H          1.3756276864       -1.7213102493        1.3079869794
 H          3.0076348628       -1.0417181251        1.2419174287
 H          3.1018704422       -2.3030423363       -0.2980983466
 H          0.0789534565        2.2588597568       -2.2248915466
 H         -0.3494960527        3.2014087216       -4.6217606178
 H          3.4058379864       -2.0023889846       -5.1460976016
 H          0.8618084828        1.7541172694       -6.3076904073
 H         -0.3781030690        0.6335766571        0.8017638753
 H         -0.3843913668        0.3625248050       -0.9453938246
 H         -0.3657831720       -1.0115294797        0.1491172359
 H          4.1252109890        1.2086847111        0.6261928060
 H          4.1114316007       -0.3266292304        1.5229897231
 H          5.5946633568        0.6759500131        1.4993554468
  42
    -0.630859 !GC
 C          0.0000000000        0.0000000000        0.0000000000
 C          1.5283519966        0.0000000000        0.0000000000
 C          2.0398943992        1.4528200311        0.0000000000
 C          1.8199364747        2.1515105597        1.3413650262
 N          2.2835945875        1.3531563480        2.4588691985
 C          1.7096401782        0.0252120569        2.5397422665
 C          1.9493367586       -0.7890362515        1.2655549739
 S          3.8812300412        1.5341466376        2.9241491211
 O          4.3212632477        2.9187836849        2.9311408828
 O          4.2196274606        0.7789798242        4.1184100544
 C          4.5146408531        0.7056299953        1.4830190202
 N          2.0705942792       -0.6456474150       -1.1990461826
 C          2.8359868980       -1.7786358952       -1.1904667252
 N          3.2332408668       -2.1786800868       -2.3565523378
 C          2.7085434401       -1.2685736432       -3.2368481209
 C          1.9611717872       -0.2909684932       -2.5265377943
 C          1.3368448074        0.7093678431       -3.2915782808
 C          0.5012640966        1.8485309567       -3.1200764167
 C          0.2670591624        2.3649152145       -4.3610053182
 N          0.9023935340        1.6226576407       -5.3088003273
 C          1.5608787143        0.6043347625       -4.6970207634
 N          2.2732983735       -0.3098890219       -5.3591588625
 C          2.8401027472       -1.2427111409       -4.6264668421
 H          3.1066396250        1.4737441484       -0.2202736148
 H          1.5384598944        2.0005967023       -0.8005074760
 H          2.4032257900        3.0707166637        1.3366399645
 H          0.7652085735        2.3790570847        1.5097093429
 H          2.2080972816       -0.4918354966        3.3580902518
 H          0.6454721308        0.1323571890        2.7571127137
 H          1.3751364944       -1.7206934606        1.3067287429
 H          3.0071363514       -1.0417174253        1.2415517700
 H          3.0886126524       -2.3121452146       -0.3000617125
 H          0.0906641118        2.2671555528       -2.2213767258
 H         -0.3211751026        3.2234544391       -4.6156391648
 H          3.4146184854       -1.9938551988       -5.1459573343
 H          0.8927336656        1.7793887075       -6.3026815262
 H         -0.3659161736       -1.0126871633        0.1403523428
 H         -0.3782204365        0.6264551407        0.8072388428
 H         -0.3843092085        0.3706263597       -0.9422820352
 H          4.1391296416       -0.3066488142        1.5264396463
 H          5.5924247580        0.7061095855        1.5744003203
 H          4.1872717951        1.2287993807        0.5961401067
  42
    -0.629477 !GC
 C          0.0000000000        0.0000000000        0.0000000000
 C          1.5299114045        0.0000000000        0.0000000000
 C          2.1007921583        1.4311438294        0.0000000000
 C          3.6124968110        1.4255479789        0.2272989927
 N          3.9613142343        0.7882073039        1.4654615176
 C          2.8144069719        0.2890633829        2.1952762900
 C          1.9393558845       -0.6910991609        1.4030412517
 S          5.3804681980       -0.0583822670        1.6047866511
 O          5.6249168958       -0.2157331902        3.0178081124
 O          5.4173189293       -1.2770324418        0.8060562823
 C          6.5892275952        1.0831366502        0.9352273605
 N          2.0247873457       -0.6916203257       -1.1901930384
 C          3.0337454152       -0.2616424867       -2.0023894087
 N          3.3161952424       -1.0553673931       -2.9873474076
 C          2.4626497398       -2.1181599628       -2.8373126657
 C          1.6509790117       -1.9199449374       -1.6931797883
 C          0.7657576764       -2.9600412024       -1.3566120680
 C         -0.1711266975       -3.3159526531       -0.3436926220
 C         -0.6647292459       -4.5472103989       -0.6644409104
 N         -0.0983353549       -4.9936224894       -1.8171298553
 C          0.7835831440       -4.0619323455       -2.2626672600
 N          1.5244814551       -4.2234814605       -3.3618877155
 C          2.3643433974       -3.2526769469       -3.6421833602
 H          1.8974815077        1.9337341697       -0.9413396219
 H          1.6163811433        1.9979905002        0.7996780631
 H          4.1287063300        0.8749998189       -0.5583305385
 H          4.0007282835        2.4429919969        0.2723091524
 H          3.2311246560       -0.2269607196        3.0616029640
 H          2.2149649107        1.1367173835        2.5340383996
 H          1.0517240258       -0.9466577669        1.9847063307
 H          2.4971058314       -1.6128534470        1.2392074876
 H          3.5749896193        0.6455007778       -1.8376499953
 H         -0.4671283493       -2.7739285961        0.5337000441
 H         -1.3881806397       -5.1319302381       -0.1326415616
 H          2.9819268463       -3.3729486273       -4.5190500844
 H         -0.2755363425       -5.8725372806       -2.2735573711
 H         -0.3950267345        0.6981452327        0.7310243452
 H         -0.3735458724        0.2601480438       -0.9870151970
 H         -0.3601209746       -0.9927785306        0.2355959718
 H          6.3347513167        1.2653987724       -0.0985554461
 H          7.5656025754        0.6235773977        1.0156766540
 H          6.5322375454        1.9829158198        1.5295306891
  42
    -0.629280 !GC
 C          0.0000000000        0.0000000000        0.0000000000
 C          1.5282982500        0.0000000000        0.0000000000
 C          1.9503081987        1.4777586342        0.0000000000
 C          1.7134716558        2.1325169068        1.3634912546
 N          2.2943384301        1.3664440820        2.4476360229
 C          1.8328795967       -0.0044506957        2.5411954707
 C          2.0465375505       -0.7783398264        1.2407317707
 S          3.8938011246        1.6692459401        2.8369756591
 O          4.2271156874        3.0834812453        2.8292279633
 O          4.3450309175        0.9411348090        4.0104761439
 C          4.5197008176        0.8922314447        1.3642079094
 N          2.0707006044       -0.6665455606       -1.1875576905
 C          2.8418643316       -0.0535410726       -2.1357560992
 N          3.2427892324       -0.8244972599       -3.0961850542
 C          2.7147177125       -2.0545195858       -2.8019565885
 C          1.9620182090       -1.9775070637       -1.5993765014
 C          1.3335420114       -3.1585545665       -1.1680864644
 C          0.4929483723       -3.6235098204       -0.1180593670
 C          0.2570825652       -4.9473784061       -0.3489980307
 N          0.8971987394       -5.3504058499       -1.4806097610
 C          1.5596027467       -4.2889576004       -2.0092353751
 N          2.2772033292       -4.3590384320       -3.1325826712
 C          2.8475039538       -3.2413968016       -3.5247549426
 H          3.0073588092        1.5912176700       -0.2305518955
 H          1.3729525305        2.0023154808       -0.7685122961
 H          2.2098300125        3.1015305301        1.3529209844
 H          0.6497590939        2.2576819260        1.5731555622
 H          2.4199633496       -0.4917744622        3.3178447305
 H          0.7795794827        0.0183276481        2.8282919745
 H          1.5438928057       -1.7465573768        1.2882089388
 H          3.1125250095       -0.9781807517        1.1384622841
 H          3.0959467219        0.9837532784       -2.1080098237
 H          0.0805347852       -3.0892336890        0.7161404600
 H         -0.3349831644       -5.6218119420        0.2363117759
 H          3.4268690347       -3.2783963531       -4.4342212444
 H          0.8890045326       -6.2736597321       -1.8806681682
 H         -0.3841082295       -0.9927390082       -0.1996834120
 H         -0.3782724237        0.3383290673        0.9641868918
 H         -0.3657443209        0.6671829945       -0.7747657755
 H          4.1714541457       -0.1303976367        1.3918816734
 H          5.5988875469        0.9189082918        1.4333358419
 H          4.1600482221        1.4266821574        0.4966529173
  42
    -0.627416 !GC
 C          0.0000000000        0.0000000000        0.0000000000
 C          1.5282995117        0.0000000000        0.0000000000
 C          1.9502044759        1.4778019942        0.0000000000
 C          1.7136429132        2.1321748589        1.3637585518
 N          2.2941713268        1.3658667501        2.4479580697
 C          1.8326081722       -0.0049813220        2.5412255194
 C          2.0467929708       -0.7783871623        1.2405965685
 S          3.8935906504        1.6678864295        2.8381151020
 O          4.2268851938        3.0821575981        2.8349429304
 O          4.3447253955        0.9360524414        4.0093203477
 C          4.5196343177        0.8957980066        1.3627944584
 N          2.0705998890       -0.6665779759       -1.1875729869
 C          2.8407917002       -0.0533939449       -2.1364497478
 N          3.2407882061       -0.8242037734       -3.0974120571
 C          2.7127645192       -2.0541975933       -2.8030761536
 C          1.9612222607       -1.9773948947       -1.5997033244
 C          1.3329946010       -3.1584733968       -1.1680967203
 C          0.4931865783       -3.6235066479       -0.1174217000
 C          0.2573792548       -4.9474246372       -0.3481770518
 N          0.8960490161       -5.3501799581       -1.4807468397
 C          1.5582049805       -4.2887157704       -2.0097172271
 N          2.2747857721       -4.3586437897       -3.1337569007
 C          2.8449326729       -3.2410194519       -3.5261536931
 H          3.0071736510        1.5914151586       -0.2308669944
 H          1.3725715868        2.0024279503       -0.7682884127
 H          2.2102430060        3.1010726969        1.3533846721
 H          0.6499789163        2.2576868011        1.5734066851
 H          2.4194749289       -0.4924012380        3.3179639357
 H          0.7792081192        0.0177798141        2.8279574427
 H          1.5446045897       -1.7468576165        1.2877554203
 H          3.1129509076       -0.9776385159        1.1384808580
 H          3.0951276716        0.9838584400       -2.1086709455
 H          0.0809188139       -3.0892147586        0.7166697138
 H         -0.3342808379       -5.6218987723        0.2375375829
 H          3.4239005885       -3.2779958528       -4.4359291893
 H          0.8871371760       -6.2733198293       -1.8811952995
 H         -0.3839334205       -0.9929971389       -0.1994230090
 H         -0.3780352961        0.3386608289        0.9643139827
 H         -0.3656053287        0.6671376380       -0.7750224738
 H          4.1064898768        1.4516427033        0.5331718920
 H          4.1447082085       -0.1177381547        1.3682752654
 H          5.6010044259        0.9241444846        1.3663462292
  42
    -0.626913 !GC
 C          0.0000000000        0.0000000000        0.0000000000
 C          1.5283636038        0.0000000000        0.0000000000
 C          2.0408499180        1.4524734182        0.0000000000
 C          1.8227913066        2.1514161389        1.3413652160
 N          2.2860495106        1.3529742030        2.4590872691
 C          1.7094958279        0.0259110953        2.5399665054
 C          1.9490179306       -0.7891703882        1.2662722235
 S          3.8865424088        1.5253269611        2.9194712794
 O          4.3482899297        2.9019084415        2.8767698659
 O          4.2126508719        0.8087798897        4.1405519906
 C          4.5077352521        0.6309629873        1.5130367710
 N          2.0702217617       -0.6456312846       -1.1992854084
 C          2.8347222974       -1.7792670513       -1.1904422889
 N          3.2322074228       -2.1795105764       -2.3563503050
 C          2.7085144667       -1.2690995600       -3.2368612948
 C          1.9616904209       -0.2908032467       -2.5268867008
 C          1.3376151278        0.7094055794       -3.2924319177
 C          0.5012661924        1.8481532124       -3.1221469347
 C          0.2667311133        2.3633255000       -4.3635436309
 N          0.9027861992        1.6208093905       -5.3106062570
 C          1.5616394904        0.6032654431       -4.6978288966
 N          2.2742854050       -0.3111260843       -5.3594929958
 C          2.8407259326       -1.2437655192       -4.6264111898
 H          3.1076366677        1.4731103701       -0.2207580640
 H          1.5395651864        2.0010640247       -0.8001222853
 H          2.4078298610        3.0695050852        1.3349773775
 H          0.7686609760        2.3803695472        1.5109518920
 H          2.2056413136       -0.4913285208        3.3596679207
 H          0.6453398555        0.1356180184        2.7558196391
 H          1.3744365259       -1.7204805924        1.3079758831
 H          3.0066550240       -1.0420719359        1.2417516006
 H          3.0862336371       -2.3132362379       -0.2999422047
 H          0.0903420161        2.2674732103       -2.2241392035
 H         -0.3220957500        3.2212340810       -4.6189242937
 H          3.4158377118       -1.9947270504       -5.1455630684
 H          0.8929787936        1.7764916939       -6.3047895863
 H         -0.3884136664        0.6142552854        0.8106366215
 H         -0.3781634056        0.3557300705       -0.9581301840
 H         -0.3620067535       -1.0084087857        0.1377368066
 H          5.5867784716        0.6377939205        1.5415206713
 H          4.1153586690        1.1220494847        0.6327441511
 H          4.0997457778       -0.3686072182        1.5791585673
  42
    -0.626529 !GC
 C          0.0000000000        0.0000000000        0.0000000000
 C          1.5283248710        0.0000000000        0.0000000000
 C          1.9499426265        1.4780193580        0.0000000000
 C          1.7174832641        2.1325515800        1.3644649250
 N          2.2949956740        1.3640041905        2.4485680396
 C          1.8292596927       -0.0056164967        2.5405262610
 C          2.0470856515       -0.7784450318        1.2401673431
 S          3.8948715534        1.6564907899        2.8442855633
 O          4.2405350731        3.0676449939        2.8304080553
 O          4.3331044687        0.9310814465        4.0242953911
 C          4.5223866567        0.8637329576        1.3806370024
 N          2.0702583546       -0.6669520653       -1.1875050518
 C          2.8323287900       -0.0520205797       -2.1418123244
 N          3.2333589560       -0.8235230034       -3.1017900714
 C          2.7147779209       -2.0559491250       -2.8009492282
 C          1.9675283420       -1.9797669636       -1.5949479606
 C          1.3479965581       -3.1631865174       -1.1572165516
 C          0.5127593464       -3.6290131662       -0.1032714774
 C          0.2870967012       -4.9559386406       -0.3268262782
 N          0.9273312931       -5.3596147890       -1.4581833191
 C          1.5797858490       -4.2956569259       -1.9939505502
 N          2.2936852549       -4.3653165777       -3.1196003142
 C          2.8526979166       -3.2448741066       -3.5196126560
 H          3.0060777612        1.5927631125       -0.2339109263
 H          1.3699544190        2.0032745644       -0.7661122377
 H          2.2181810040        3.0993799124        1.3541479738
 H          0.6543947812        2.2623102122        1.5746149569
 H          2.4120887966       -0.4947358305        3.3191885553
 H          0.7749114259        0.0195809709        2.8236995355
 H          1.5466981457       -1.7479102380        1.2854827741
 H          3.1138707104       -0.9750747291        1.1388915067
 H          3.0787382079        0.9873313059       -2.1194840259
 H          0.0961629334       -3.0931551240        0.7277946737
 H         -0.2980585144       -5.6319075003        0.2635421133
 H          3.4291428323       -3.2816645635       -4.4310516380
 H          0.9250569865       -6.2847834879       -1.8538505448
 H         -0.3660304710        0.3182986025        0.9715139860
 H         -0.4064800126        0.6463088501       -0.7719020548
 H         -0.3556772176       -1.0137546762       -0.1646788080
 H          5.5994845736        0.9532194402        1.4174960075
 H          4.1326458644        1.4232639025        0.5424209224
 H          4.2064215637       -0.1693764211        1.3692295448
  42
    -0.625722 !GC
 C          0.0000000000        0.0000000000        0.0000000000
 C          1.5336009940        0.0000000000        0.0000000000
 C          1.9157457755        1.4894397455        0.0000000000
 C          3.4249296986        1.7398862975        0.1039141234
 N          4.0297199443        1.0174344413        1.2010340767
 C          3.6325122532       -0.3697649625        1.2948645125
 C          2.1154069129       -0.5423826617        1.2683126004
 S          4.5125794203        1.8615489500        2.5404200300
 O          3.9899217770        3.2143320796        2.4954657355
 O          4.2143742681        1.1031971294        3.7411558904
 C          6.2891675680        1.9215153180        2.3276373662
 N          2.0276515373       -0.7201612023       -1.1714987236
 C          2.9671385216       -1.7109725747       -1.1690444462
 N          3.2101262380       -2.2347292305       -2.3296041163
 C          2.3990034134       -1.5524204438       -3.1999962540
 C          1.6597664526       -0.5697387553       -2.4908147931
 C          0.8398129614        0.2830282717       -3.2490485728
 C          0.0067090254        1.4251449895       -3.0830845090
 C         -0.4782213452        1.7515254716       -4.3161064488
 N         -0.0017064570        0.8864176556       -5.2522752984
 C          0.8149190332       -0.0121693541       -4.6440629740
 N          1.4747966843       -0.9687795112       -5.3020703452
 C          2.2705991704       -1.7258156652       -4.5800526191
 H          1.5523242408        2.0108795626       -0.8825374781
 H          1.4137496825        1.9175823034        0.8726169143
 H          3.9106183836        1.4062481646       -0.8173671682
 H          3.6482481079        2.7937464444        0.2653700342
 H          4.0564321411       -0.9082520813        0.4406918132
 H          4.0700857226       -0.7539077739        2.2156888459
 H          1.6495523185       -0.0403986704        2.1160175964
 H          1.9102261855       -1.6046343692        1.3613051162
 H          3.4958680542       -2.0223248973       -0.2936563086
 H         -0.2064369399        1.9802000182       -2.1913059214
 H         -1.1352158953        2.5554299049       -4.5810790024
 H          2.8284688927       -2.4893769325       -5.1002781620
 H         -0.1930967187        0.9034113717       -6.2398135607
 H         -0.3697158759        0.7508646142       -0.6975436112
 H         -0.4061681702       -0.9706327124       -0.2613372248
 H         -0.3524419095        0.2614147743        0.9929822881
 H          6.5881011591        0.8880548765        2.2147129419
 H          6.7465759569        2.3815576933        3.1901727265
 H          6.4903150784        2.4454830457        1.4031144505
  42
    -0.625133 !GC
 C          0.0000000000        0.0000000000        0.0000000000
 C          1.5286892375        0.0000000000        0.0000000000
 C          1.9881408207        1.4561931196        0.0000000000
 C          2.6981386373        1.8447866301        1.2975035481
 N          1.8974386851        1.4878590331        2.4518643464
 C          1.8083464380        0.0656007127        2.6480659855
 C          2.0180475175       -0.6415329890        1.3151800150
 S          1.9869261399        2.4516381617        3.7990736107
 O          2.1332225054        1.6023556018        4.9675453042
 O          3.0086238618        3.4651900551        3.6163279636
 C          0.3892394997        3.2569976822        3.8389753548
 N          2.0330971782       -0.6974320104       -1.1829227892
 C          3.1273465020       -1.5127277410       -1.2315117553
 N          3.3557155644       -2.0423716942       -2.3934672400
 C          2.3628862030       -1.5568904205       -3.2063831749
 C          1.5358532318       -0.6675222179       -2.4698023706
 C          0.5549104124        0.0360401021       -3.1910853132
 C         -0.3916786395        1.0854554112       -3.0133994278
 C         -1.0063943349        1.2799422901       -4.2166434493
 N         -0.5064659843        0.4204935968       -5.1443255973
 C          0.4586712079       -0.3383990457       -4.5652191191
 N          1.1872897193       -1.2351341729       -5.2345902103
 C          2.1456326229       -1.8277471707       -4.5600808886
 H          2.6103632289        1.6718834125       -0.8660137536
 H          1.0847869482        2.0624085977       -0.0920283611
 H          3.6884788931        1.3738404127        1.3723977997
 H          2.8376373442        2.9277461805        1.3266219338
 H          2.5699719193       -0.2710734075        3.3638608184
 H          0.8332699389       -0.1478033189        3.0784958366
 H          1.5828343482       -1.6389144106        1.3741631557
 H          3.0906795252       -0.7152006408        1.1566487501
 H          3.7789186133       -1.6705319884       -0.3985341943
 H         -0.6074320755        1.6712124330       -2.1402598726
 H         -1.7713743169        1.9885547329       -4.4632852842
 H          2.7657666265       -2.5301631472       -5.0953168415
 H         -0.7737185394        0.3592721725       -6.1125965901
 H         -0.3758586431        0.6513243132       -0.7856938150
 H         -0.3983214082       -0.9984343759       -0.1393145226
 H         -0.3634097635        0.3811827797        0.9468755123
 H          0.4133176358        3.9513114973        4.6683676255
 H         -0.3786361196        2.5110515919        3.9843626340
 H          0.2764609109        3.7716766042        2.8960466820
  42
    -0.622656 !GC
 C          0.0000000000        0.0000000000        0.0000000000
 C          1.5283656225        0.0000000000        0.0000000000
 C          1.9506812399        1.4777287820        0.0000000000
 C          1.7124050420        2.1326848444        1.3631256938
 N          2.2935357794        1.3670296574        2.4474626305
 C          1.8328096039       -0.0041509993        2.5409106436
 C          2.0460765740       -0.7786271411        1.2406483135
 S          3.8932609842        1.6720112699        2.8346865167
 O          4.2270293774        3.0859096797        2.8131870029
 O          4.3441048053        0.9550680033        4.0153029517
 C          4.5194583727        0.8800693578        1.3700178415
 N          2.0705254792       -0.6670897826       -1.1873391497
 C          2.8446225459       -0.0555053008       -2.1340438555
 N          3.2422361196       -0.8261394915       -3.0961271465
 C          2.7084025017       -2.0543739159       -2.8048633390
 C          1.9561183274       -1.9766497527       -1.6020274031
 C          1.3236440691       -3.1562123839       -1.1725570389
 C          0.4832317840       -3.6201379751       -0.1219782207
 C          0.2418773347       -4.9426366363       -0.3552302790
 N          0.8780366974       -5.3456521904       -1.4891297357
 C          1.5439743011       -4.2857117794       -2.0164956304
 N          2.2602102323       -4.3563041033       -3.1407322892
 C          2.8358011327       -3.2403476952       -3.5302904383
 H          3.0082830452        1.5907740459       -0.2286475061
 H          1.3747774477        2.0023092928       -0.7696935514
 H          2.2074323877        3.1024091179        1.3527774708
 H          0.6484341101        2.2563716748        1.5720238747
 H          2.4208024439       -0.4910024999        3.3171406607
 H          0.7797473529        0.0182782512        2.8291515843
 H          1.5422753777       -1.7462828608        1.2881985080
 H          3.1118169629       -0.9796935188        1.1384584706
 H          3.1038854989        0.9804292438       -2.1037580894
 H          0.0748653439       -3.0861713746        0.7141929805
 H         -0.3519640181       -5.6158347652        0.2296665268
 H          3.4141465936       -3.2776624260       -4.4403979912
 H          0.8653639511       -6.2680471924       -1.8911897056
 H         -0.3878842938       -0.9956879260       -0.2076110180
 H         -0.3840945412        0.3483333673        0.9507686764
 H         -0.3562123198        0.6832595052       -0.7665314117
 H          5.5981386238        0.9128018161        1.3866031565
 H          4.1039134759        1.4160032059        0.5276309379
 H          4.1372695665       -0.1316300572        1.3762899729
  42
    -0.621544 !GC
 C          0.0000000000        0.0000000000        0.0000000000
 C          1.5299116569        0.0000000000        0.0000000000
 C          2.1009183206        1.4310782481        0.0000000000
 C          3.6124097340        1.4253146790        0.2286284009
 N          3.9600632294        0.7891389929        1.4676727720
 C          2.8126942992        0.2897928128        2.1965949411
 C          1.9388522177       -0.6916764316        1.4045129575
 S          5.3787796656       -0.0576426746        1.6089542592
 O          5.6209625559       -0.2158235069        3.0222748644
 O          5.4165612995       -1.2759458316        0.8097675997
 C          6.5887849493        1.0840866421        0.9420224001
 N          2.0243564626       -0.6913719309       -1.1905730788
 C          3.0322323189       -0.2601441896       -2.0035207045
 N          3.3117435843       -1.0511944581       -2.9914719625
 C          2.4568647118       -2.1131182406       -2.8432920745
 C          1.6478709526       -1.9178800281       -1.6960722406
 C          0.7625112316       -2.9580895168       -1.3601959461
 C         -0.1712696200       -3.3164932940       -0.3453024265
 C         -0.6672181251       -4.5461486128       -0.6685090801
 N         -0.1055173906       -4.9890558646       -1.8248925767
 C          0.7760242317       -4.0568677365       -2.2701221589
 N          1.5130701012       -4.2155393818       -3.3723790004
 C          2.3535661324       -3.2450559189       -3.6518099034
 H          1.8984826180        1.9332605559       -0.9417513933
 H          1.6159116852        1.9983165143        0.7990520566
 H          4.1290718782        0.8739199972       -0.5561334088
 H          4.0007834106        2.4427472805        0.2730695134
 H          3.2289613308       -0.2251834017        3.0637567955
 H          2.2124015569        1.1373704990        2.5340562268
 H          1.0516474258       -0.9484544096        1.9863219157
 H          2.4980778673       -1.6125557907        1.2405638231
 H          3.5753302075        0.6455310703       -1.8368651137
 H         -0.4636360121       -2.7771530621        0.5349387735
 H         -1.3895553282       -5.1318981796       -0.1363307890
 H          2.9688691976       -3.3634627659       -4.5305422818
 H         -0.2851122257       -5.8663165439       -2.2836526209
 H         -0.3949418433        0.6985653804        0.7307049227
 H         -0.3736359970        0.2597547336       -0.9870907813
 H         -0.3601404230       -0.9926602675        0.2361074660
 H          7.5639975891        0.6318821827        1.0354956913
 H          6.5126062861        1.9947062098        1.5214903997
 H          6.3323132430        1.2705158610       -0.0920650240
  42
    -0.619922 !GC
 C          0.0000000000        0.0000000000        0.0000000000
 C          1.5299136755        0.0000000000        0.0000000000
 C          2.1020263922        1.4306386065        0.0000000000
 C          3.6139718791        1.4226367857        0.2254419449
 N          3.9621821425        0.7876937432        1.4649668324
 C          2.8146382072        0.2906762371        2.1953444610
 C          1.9389834933       -0.6913763727        1.4058037222
 S          5.3819923979       -0.0579587925        1.6044103552
 O          5.6293348059       -0.2088852770        3.0176178378
 O          5.4171904683       -1.2805003294        0.8116276684
 C          6.5884399545        1.0814399640        0.9273129159
 N          2.0249593563       -0.6905265468       -1.1907445430
 C          3.0323026857       -0.2586832553       -2.0040313187
 N          3.3062871903       -1.0455548998       -2.9968425320
 C          2.4473478452       -2.1047495767       -2.8524588776
 C          1.6427182072       -1.9131640466       -1.7010971423
 C          0.7546294421       -2.9517085350       -1.3675092855
 C         -0.1761002532       -3.3121467510       -0.3505066815
 C         -0.6793966428       -4.5372982850       -0.6793515314
 N         -0.1253348469       -4.9753098940       -1.8413267180
 C          0.7586032327       -4.0444606116       -2.2846868357
 N          1.4905232157       -4.1995782709       -3.3908807481
 C          2.3354265237       -3.2319522616       -3.6668899087
 H          1.8980703908        1.9338768760       -0.9407919692
 H          1.6192051142        1.9976065646        0.8005066638
 H          4.1280542771        0.8689236111       -0.5594176613
 H          4.0046486905        2.4392735276        0.2674727050
 H          3.2309436840       -0.2232063487        3.0631855821
 H          2.2155132476        1.1393888125        2.5319484098
 H          1.0523779713       -0.9473487723        1.9888514584
 H          2.4979049504       -1.6124506246        1.2420816388
 H          3.5794909326        0.6437402464       -1.8330995639
 H         -0.4613267168       -2.7771980239        0.5347334232
 H         -1.4019268317       -5.1230868763       -0.1474630108
 H          2.9463903953       -3.3476105615       -4.5490042337
 H         -0.3121415157       -5.8484996502       -2.3048511914
 H         -0.3804773444       -0.9903289124        0.2333168927
 H         -0.3945885837        0.7256333887        0.7024131640
 H         -0.3534692143        0.2815219882       -0.9851758424
 H          6.3141946069        1.2388968631       -0.1043186683
 H          7.5646170227        0.6309481870        1.0330721408
 H          6.5406690628        2.0061329761        1.4899089643
  42
    -0.619665 !GC
 C          0.0000000000        0.0000000000        0.0000000000
 C          1.5283517443        0.0000000000        0.0000000000
 C          2.0407807403        1.4525206658        0.0000000000
 C          1.8238092471        2.1512151562        1.3416630296
 N          2.2873189740        1.3523081570        2.4588596840
 C          1.7104296778        0.0256213238        2.5403563501
 C          1.9487474329       -0.7894339745        1.2663778775
 S          3.8864098986        1.5260352658        2.9224499053
 O          4.3466280580        2.9032744951        2.8814870558
 O          4.2107668014        0.8090175830        4.1439273952
 C          4.5115138350        0.6332780616        1.5164728423
 N          2.0704945432       -0.6452942089       -1.1993388006
 C          2.8353518737       -1.7786791782       -1.1910108734
 N          3.2323809527       -2.1787109737       -2.3571693407
 C          2.7089385575       -1.2677130673       -3.2372084303
 C          1.9622354576       -0.2896665195       -2.5267171617
 C          1.3383336652        0.7110430698       -3.2916564672
 C          0.5023953182        1.8500142777       -3.1204398692
 C          0.2684899991        2.3663643693       -4.3615336767
 N          0.9038803889        1.6239902164       -5.3091151865
 C          1.5622175175        0.6056810514       -4.6971168047
 N          2.2741238967       -0.3088608253       -5.3593180921
 C          2.8406915700       -1.2418605041       -4.6267573768
 H          3.1073677165        1.4732440863       -0.2217107084
 H          1.5387112515        2.0011343491       -0.7996035759
 H          2.4093019261        3.0690492789        1.3350635236
 H          0.7698155408        2.3806952170        1.5116919390
 H          2.2069375924       -0.4917505657        3.3597507596
 H          0.6464070901        0.1354116325        2.7567843178
 H          1.3732290675       -1.7201238209        1.3082748898
 H          3.0061355992       -1.0433578335        1.2415987253
 H          3.0869838127       -2.3130793204       -0.3008228059
 H          0.0909342651        2.2685096363       -2.2222402486
 H         -0.3197800218        3.2248219260       -4.6163639043
 H          3.4146933342       -1.9933501481       -5.1463969118
 H          0.8939120521        1.7803333954       -6.3031799183
 H         -0.3885203138        0.6137302375        0.8109072420
 H         -0.3783947702        0.3561299622       -0.9577541834
 H         -0.3620164498       -1.0083900075        0.1372344253
 H          4.1698017792        1.1101323416        0.6091827237
 H          4.1477215544       -0.3796458580        1.6119045523
 H          5.5901367653        0.6490193866        1.5959620859
  42
    -0.618032 !GC
 C          0.0000000000        0.0000000000        0.0000000000
 C          1.5283413987        0.0000000000        0.0000000000
 C          1.9496349266        1.4780315196        0.0000000000
 C          1.7144312806        2.1325666787        1.3640318027
 N          2.2925064170        1.3651695803        2.4487544034
 C          1.8295907148       -0.0054085385        2.5405348717
 C          2.0471340453       -0.7781814054        1.2401526443
 S          3.8923770633        1.6624946611        2.8414612425
 O          4.2278162339        3.0763656421        2.8510489102
 O          4.3422274688        0.9196590688        4.0060035623
 C          4.5174653719        0.9032020024        1.3591139846
 N          2.0705674088       -0.6673882774       -1.1871452323
 C          2.8345405263       -0.0529619829       -2.1402420973
 N          3.2360360965       -0.8245310356       -3.0999412488
 C          2.7156180910       -2.0565030408       -2.8002780496
 C          1.9661712968       -1.9797850653       -1.5955987283
 C          1.3443677479       -3.1625973887       -1.1594005105
 C          0.5076287844       -3.6281709104       -0.1065568180
 C          0.2789458797       -4.9542917928       -0.3320745599
 N          0.9198002121       -5.3580531464       -1.4630450881
 C          1.5752965981       -4.2948367225       -1.9968314562
 N          2.2906666937       -4.3648868956       -3.1216459663
 C          2.8534099165       -3.2452660622       -3.5192874267
 H          3.0062538615        1.5920553280       -0.2318560650
 H          1.3710874744        2.0027656959       -0.7676220957
 H          2.2128000794        3.1006316951        1.3543826089
 H          0.6509273008        2.2600334732        1.5732711704
 H          2.4145055309       -0.4937309290        3.3181210251
 H          0.7755797496        0.0177736829        2.8250350810
 H          1.5469650342       -1.7477804898        1.2858623763
 H          3.1139923873       -0.9747757099        1.1391610578
 H          3.0832894782        0.9857237697       -2.1164885303
 H          0.0915194210       -3.0924780162        0.7247138337
 H         -0.3088371548       -5.6296941578        0.2563806058
 H          3.4289240498       -3.2815258881       -4.4312344674
 H          0.9156984416       -6.2827968658       -1.8599192909
 H         -0.3884424203       -0.9973892321       -0.1980597689
 H         -0.3841351364        0.3579635286        0.9471748309
 H         -0.3556468464        0.6760614281       -0.7731903136
 H          4.1766449925       -0.1200922121        1.3178625861
 H          5.5933159030        0.9892701700        1.4068645061
 H          4.1468114573        1.4837664889        0.5238351426
  42
    -0.617579 !GC
 C          0.0000000000        0.0000000000        0.0000000000
 C          1.5296750962        0.0000000000        0.0000000000
 C          2.0986253930        1.4457099225        0.0000000000
 C          1.8745170763        2.1478733174        1.3437852111
 N          2.2575589570        1.3479641841        2.4892288032
 C          1.6969784427        0.0157422315        2.5243818138
 C          2.0069202261       -0.7526363090        1.2406050517
 S          3.7752154343        1.6053589201        3.1042156415
 O          3.8793432437        0.7835343233        4.2891774339
 O          4.8403501703        1.4503130760        2.1235533259
 C          3.7058055220        3.3235533919        3.6042899496
 N          2.0219489702       -0.6162961258       -1.2349831872
 C          2.9481550113       -0.0795185339       -2.0833212918
 N          3.2217881128       -0.8069180306       -3.1206135220
 C          2.4304349434       -1.9196014300       -2.9891907182
 C          1.6609955683       -1.8188271803       -1.8010414104
 C          0.7715300160       -2.8695224375       -1.5223403085
 C         -0.1801687592       -3.2583983169       -0.5385650233
 C         -0.7028129090       -4.4544634244       -0.9361494412
 N         -0.1434132614       -4.8434344731       -2.1143598575
 C          0.7626461258       -3.9077375298       -2.4997789037
 N          1.4877539986       -4.0006238885       -3.6175469909
 C          2.3168046169       -3.0088112873       -3.8561789332
 H          3.1665584613        1.4184770571       -0.2190283393
 H          1.6418385448        2.0487265577       -0.7864427709
 H          2.4706781462        3.0588381101        1.3655133234
 H          0.8197327398        2.4089766889        1.4616490793
 H          2.1580088971       -0.4850101728        3.3755133030
 H          0.6225174781        0.1002169839        2.6982461971
 H          1.5180952387       -1.7276057063        1.2569892831
 H          3.0865157158       -0.8862540403        1.1888653948
 H          3.4138471586        0.8692068258       -1.9218327719
 H         -0.4467623762       -2.7642075306        0.3745545932
 H         -1.4442118020       -5.0520595049       -0.4447562754
 H          2.9086624063       -3.0693739938       -4.7566121321
 H         -0.3427487705       -5.6875284027       -2.6244267852
 H         -0.3682386297        0.3965424457        0.9463662181
 H         -0.4014156093        0.5851646874       -0.8184545091
 H         -0.3632376508       -1.0164803660       -0.0992223685
 H          3.4736572883        3.8932091630        2.7176652844
 H          4.6693869134        3.5781006775        4.0220085902
 H          2.9305150992        3.4315593105        4.3531864285
  42
    -0.617240 !GC
 C          0.0000000000        0.0000000000        0.0000000000
 C          1.5284114206        0.0000000000        0.0000000000
 C          2.0399465454        1.4529016442        0.0000000000
 C          1.8215457613        2.1512096890        1.3418224403
 N          2.2853679528        1.3524512327        2.4589997191
 C          1.7102108571        0.0249904222        2.5400160982
 C          1.9495327044       -0.7892903708        1.2657465353
 S          3.8833759661        1.5309863608        2.9238773610
 O          4.3260223908        2.9148001267        2.9304140002
 O          4.2203895461        0.7755107306        4.1183487036
 C          4.5153379684        0.7009408359        1.4829441157
 N          2.0704829132       -0.6455758731       -1.1991742593
 C          2.8377426760       -1.7772690126       -1.1903909831
 N          3.2353616679       -2.1770673303       -2.3564491221
 C          2.7091384851       -1.2681209677       -3.2369472918
 C          1.9605961370       -0.2912801819       -2.5267284134
 C          1.3346606564        0.7078462092       -3.2920736337
 C          0.4977767568        1.8461537323       -3.1208149770
 C          0.2618108861        2.3610833263       -4.3621163776
 N          0.8983337755        1.6194192555       -5.3096861627
 C          1.5582677039        0.6021443638       -4.6975791498
 N          2.2715842639       -0.3115755063       -5.3595985294
 C          2.8399317592       -1.2432245987       -4.6266814079
 H          3.1064293578        1.4738764338       -0.2214427580
 H          1.5377268597        2.0009211790       -0.7998961253
 H          2.4054711215        3.0700715399        1.3367365200
 H          0.7671364834        2.3794714108        1.5110595425
 H          2.2081588078       -0.4923241830        3.3585390011
 H          0.6461178084        0.1331982592        2.7569741358
 H          1.3750628536       -1.7207421795        1.3071386203
 H          3.0073541959       -1.0421136015        1.2415518688
 H          3.0917919002       -2.3099138047       -0.2998385868
 H          0.0871868496        2.2649052454       -2.2223403588
 H         -0.3285743877        3.2181058271       -4.6171725224
 H          3.4154247155       -1.9938534508       -5.1460330408
 H          0.8882543076        1.7757734152       -6.3037263977
 H         -0.3843421610        0.6099926562        0.8080572948
 H         -0.3883013991        0.3647268468       -0.9492154774
 H         -0.3558427838       -1.0145272170        0.1589208662
 H          5.5913955592        0.7016686219        1.5816319812
 H          4.1714446556        1.2185308252        0.6004636429
 H          4.1511753680       -0.3182914877        1.5181615619
  42
    -0.616379 !GC
 C          0.0000000000        0.0000000000        0.0000000000
 C          1.5299766322        0.0000000000        0.0000000000
 C          2.1016730334        1.4309402048        0.0000000000
 C          3.6133883751        1.4246170883        0.2278014207
 N          3.9616817166        0.7903430964        1.4677845319
 C          2.8135735880        0.2909031029        2.1956747986
 C          1.9404683881       -0.6902486350        1.4023348190
 S          5.3849707045       -0.0490049852        1.6101309176
 O          5.6441738203       -0.1704192540        3.0239614850
 O          5.4178798043       -1.2877121425        0.8424512646
 C          6.5828807235        1.0792993993        0.9000921029
 N          2.0252870773       -0.6914865361       -1.1900411780
 C          3.0317343553       -0.2597820737       -2.0044245358
 N          3.3127801178       -1.0527087801       -2.9904701355
 C          2.4607018697       -2.1164584675       -2.8391479087
 C          1.6515743064       -1.9199221288       -1.6926735174
 C          0.7679658037       -2.9607893127       -1.3544658482
 C         -0.1664288319       -3.3175569932       -0.3395460816
 C         -0.6595873626       -4.5492043427       -0.6593572565
 N         -0.0951886870       -4.9950853784       -1.8132937230
 C          0.7842212151       -4.0621272259       -2.2611318884
 N          1.5223577535       -4.2223295328       -3.3624061746
 C          2.3607484889       -3.2507504853       -3.6443414410
 H          1.8985365170        1.9335687541       -0.9414514479
 H          1.6172029759        1.9978483813        0.7995923080
 H          4.1288524603        0.8712948132       -0.5563835739
 H          4.0031912045        2.4416077860        0.2701449807
 H          3.2295427817       -0.2244223673        3.0628138434
 H          2.2131019766        1.1379957604        2.5337933805
 H          1.0516972278       -0.9462671708        1.9821306949
 H          2.4995520355       -1.6114094785        1.2396874407
 H          3.5729490548        0.6474516892       -1.8397893571
 H         -0.4609436446       -2.7757199501        0.5384650026
 H         -1.3811691288       -5.1346695775       -0.1257925074
 H          2.9763432618       -3.3702433159       -4.5227061607
 H         -0.2726038881       -5.8742060644       -2.2692917721
 H         -0.3948526432       -0.9784458544        0.2497845464
 H         -0.3752222769        0.7207362381        0.7212599610
 H         -0.3585268471        0.2789624359       -0.9838126594
 H          7.5567945445        0.6224049444        1.0024305617
 H          6.5133112605        2.0191805423        1.4252771118
 H          6.3275820742        1.1985152971       -0.1457326699
  42
    -0.615840 !GC
 C          0.0000000000        0.0000000000        0.0000000000
 C          1.5295460287        0.0000000000        0.0000000000
 C          1.9758963058        1.4719342295        0.0000000000
 C          1.7050828125        2.2032639908        1.3196207554
 N          2.3207740340        1.5504729103        2.4562889386
 C          1.9502908561        0.1645170822        2.6438035093
 C          2.1023604003       -0.6584669394        1.3660623052
 S          3.8714077015        1.9507603186        2.8873955560
 O          4.8739214245        1.3786087349        1.9985293209
 O          3.9116518656        3.3865054592        3.0460266345
 C          4.0277904116        1.2157488345        4.5130434894
 N          2.0219042413       -0.7054127103       -1.1863454678
 C          3.0198797086       -1.6378024336       -1.2067982445
 N          3.2367595810       -2.1770925090       -2.3652677825
 C          2.3497756810       -1.5620533583       -3.2117309510
 C          1.5943993708       -0.5984097534       -2.4912348118
 C          0.7266634751        0.2196310427       -3.2333136383
 C         -0.1121546992        1.3560711582       -3.0606774573
 C         -0.6521613475        1.6453720628       -4.2798655491
 N         -0.2063780541        0.7608461154       -5.2132084945
 C          0.6518146742       -0.1083895160       -4.6192353661
 N          1.3131882012       -1.0602214196       -5.2827797821
 C          2.1684455397       -1.7701848320       -4.5810968155
 H          3.0383075651        1.5355047890       -0.2495382662
 H          1.4378221481        1.9890690997       -0.7971826460
 H          2.1227470144        3.2075059073        1.2828080615
 H          0.6322170706        2.2607616408        1.5257522532
 H          2.6131013571       -0.2508852058        3.4037087811
 H          0.9242815888        0.1209346510        3.0114177102
 H          1.6529393459       -1.6429720655        1.4954595455
 H          3.1675328837       -0.7719318391        1.1848253961
 H          3.6119730314       -1.8846150721       -0.3515194922
 H         -0.2873890998        1.9370493896       -2.1769880022
 H         -1.3279836243        2.4362776036       -4.5366813921
 H          2.7346223484       -2.5209745458       -5.1107593130
 H         -0.4330100731        0.7567854174       -6.1935249297
 H         -0.3778794266        0.2694822388        0.9825960194
 H         -0.3854390713        0.6856676979       -0.7497693004
 H         -0.3695867872       -0.9896067783       -0.2430430804
 H          4.9665893093        1.5500634543        4.9309906444
 H          3.9846980792        0.1464496362        4.3743702069
 H          3.2046065583        1.5641185148        5.1248823647
  42
    -0.615436 !GC
 C          0.0000000000        0.0000000000        0.0000000000
 C          1.5297649262        0.0000000000        0.0000000000
 C          2.0104738332        1.4462627022        0.0000000000
 C          1.6979997764        2.1452950243        1.3222155989
 N          2.2600089610        1.4258869330        2.4430289513
 C          1.8797922117        0.0311010433        2.5340813821
 C          2.1029619208       -0.7549896279        1.2373240006
 S          3.7774483461        1.8217419560        2.9797354230
 O          4.8417723844        1.0552716646        2.3472953469
 O          3.8841448345        3.2600242984        2.8787690180
 C          3.7041114223        1.3740159526        4.7120864275
 N          2.0203060174       -0.7333714913       -1.1700478371
 C          2.9358084091       -1.7469633367       -1.1540358677
 N          3.2316827018       -2.2311633400       -2.3193524851
 C          2.4700322485       -1.5107131741       -3.2038189642
 C          1.6957082103       -0.5548820130       -2.4965558773
 C          0.8286496793        0.2519589939       -3.2515178466
 C         -0.1307568327        1.2868827451       -3.0691824967
 C         -0.6154829041        1.6069596979       -4.3039440680
 N         -0.0251539075        0.8335729458       -5.2556207431
 C          0.8618475340       -0.0011558319       -4.6544679506
 N          1.6033191720       -0.8909958358       -5.3194652430
 C          2.4042970328       -1.6382302637       -4.5927852945
 H          3.0901186165        1.4730551063       -0.1396789828
 H          1.5210970730        1.9660932476       -0.8246184814
 H          2.1564357389        3.1339035552        1.3353391927
 H          0.6232018831        2.2476758854        1.4839558904
 H          2.4780417955       -0.4211811245        3.3236122983
 H          0.8252521252       -0.0050792825        2.8193818078
 H          1.6429823182       -1.7383891802        1.3464396166
 H          3.1704183140       -0.9320178373        1.1002837346
 H          3.3769401576       -2.1272370666       -0.2575473679
 H         -0.4292888276        1.7779868234       -2.1642838841
 H         -1.3502638398        2.3440427373       -4.5590603614
 H          3.0068936335       -2.3650092688       -5.1156366673
 H         -0.1957471712        0.8656749477       -6.2467194046
 H         -0.3854462838        0.5724642461        0.8393760832
 H         -0.3925263724        0.4151928224       -0.9263415013
 H         -0.3556200634       -1.0182785625        0.0891801304
 H          2.9208584841        1.9742247153        5.1563670379
 H          4.6677168548        1.5832023915        5.1507005128
 H          3.4586962707        0.3220136138        4.7704043727
  42
    -0.614211 !GC
 C          0.0000000000        0.0000000000        0.0000000000
 C          1.5282745309        0.0000000000        0.0000000000
 C          1.9505923651        1.4777452066        0.0000000000
 C          1.7133885960        2.1326925353        1.3632907060
 N          2.2934439389        1.3664364279        2.4476747753
 C          1.8318268082       -0.0044862657        2.5407663481
 C          2.0463913303       -0.7784462248        1.2404731633
 S          3.8926941767        1.6681442519        2.8389421622
 O          4.2288005073        3.0816267906        2.8245090812
 O          4.3399153765        0.9453146601        4.0172251852
 C          4.5202508467        0.8813642963        1.3720770926
 N          2.0704879295       -0.6664805642       -1.1876382517
 C          2.8404470850       -0.0532683625       -2.1366896064
 N          3.2414637128       -0.8243817279       -3.0969523675
 C          2.7142962938       -2.0546354759       -2.8020029024
 C          1.9624667835       -1.9776619376       -1.5988791340
 C          1.3349903705       -3.1588665974       -1.1666896975
 C          0.4947534408       -3.6235966194       -0.1163000238
 C          0.2601654019       -4.9478887757       -0.3460332213
 N          0.9001515147       -5.3512361230       -1.4776160690
 C          1.5614953035       -4.2896025598       -2.0072689568
 N          2.2785383246       -4.3597669131       -3.1309850040
 C          2.8475707088       -3.2418385800       -3.5242088434
 H          3.0077531232        1.5913820799       -0.2301565748
 H          1.3734435436        2.0024905615       -0.7685553311
 H          2.2103170098        3.1014123012        1.3528696359
 H          0.6496464891        2.2583549220        1.5725485908
 H          2.4184254978       -0.4918396712        3.3177309203
 H          0.7783433329        0.0182481367        2.8273077132
 H          1.5439371346       -1.7468155197        1.2874326117
 H          3.1124925354       -0.9778182717        1.1383183798
 H          3.0934001587        0.9843013188       -2.1097821346
 H          0.0820395884       -3.0889556769        0.7175152140
 H         -0.3308788228       -5.6223996570        0.2402158749
 H          3.4269349505       -3.2790600255       -4.4336627338
 H          0.8925659416       -6.2748352154       -1.8769154325
 H         -0.3840384786       -0.9934726524       -0.1965208744
 H         -0.3780380004        0.3415623669        0.9631726883
 H         -0.3657089747        0.6648394494       -0.7768869755
 H          5.5992384851        0.9064501856        1.3948141334
 H          4.1125428392        1.4255036158        0.5307616802
 H          4.1310491215       -0.1279892833        1.3702447555
  42
    -0.613181 !GC
 C          0.0000000000        0.0000000000        0.0000000000
 C          1.5283252495        0.0000000000        0.0000000000
 C          2.0401789220        1.4527553405        0.0000000000
 C          1.8248823100        2.1513229549        1.3421316162
 N          2.2868254049        1.3517725363        2.4594552949
 C          1.7086798063        0.0255368353        2.5400646712
 C          1.9491023366       -0.7892890390        1.2664040896
 S          3.8858993805        1.5209810334        2.9252320847
 O          4.3464689634        2.8985969220        2.9009534290
 O          4.2093434839        0.7894440041        4.1381889660
 C          4.5116771181        0.6456449598        1.5086775670
 N          2.0706556459       -0.6454618579       -1.1991474109
 C          2.8397357859       -1.7759776166       -1.1901348589
 N          3.2360830517       -2.1766848508       -2.3562686998
 C          2.7075078343       -1.2693581321       -3.2370616754
 C          1.9587004929       -0.2926529585       -2.5269768161
 C          1.3303808982        0.7048363590       -3.2925087060
 C          0.4924770731        1.8423666050       -3.1216622591
 C          0.2529902732        2.3546198089       -4.3633888770
 N          0.8878099641        1.6117259774       -5.3109459731
 C          1.5508743590        0.5968387825       -4.6983183734
 N          2.2640754015       -0.3168950334       -5.3602486007
 C          2.8357153532       -1.2462678967       -4.6269737159
 H          3.1062958362        1.4740584205       -0.2236870690
 H          1.5365253632        2.0015746193       -0.7984827299
 H          2.4120307188        3.0681146295        1.3360034086
 H          0.7713272535        2.3827282677        1.5124267776
 H          2.2034369945       -0.4925167412        3.3600438852
 H          0.6443702067        0.1360008299        2.7547045100
 H          1.3752801608       -1.7210519678        1.3075706850
 H          3.0070624890       -1.0410874072        1.2422645801
 H          3.0955161853       -2.3073901936       -0.2993308442
 H          0.0841407112        2.2632712471       -2.2231986572
 H         -0.3382496272        3.2109459233       -4.6185690087
 H          3.4099694275       -1.9976843771       -5.1464475953
 H          0.8748885249        1.7655507961       -6.3053534424
 H         -0.3881386539        0.6169379561        0.8086711356
 H         -0.3784989094        0.3525505000       -0.9590487966
 H         -0.3620295209       -1.0078410466        0.1414132443
 H          4.1495744787       -0.3708036731        1.5365330242
 H          5.5889173927        0.7127264236        1.5598970026
 H          4.1594714691        1.1733638293        0.6312510998
  42
    -0.611716 !GC
 C          0.0000000000        0.0000000000        0.0000000000
 C          1.5283181842        0.0000000000        0.0000000000
 C          1.9494806813        1.4780570550        0.0000000000
 C          1.7140780671        2.1323729887        1.3641040723
 N          2.2925750560        1.3650771495        2.4486619344
 C          1.8299170432       -0.0055628659        2.5406259446
 C          2.0471284967       -0.7782755674        1.2401430008
 S          3.8920896964        1.6634119050        2.8417518743
 O          4.2267541073        3.0773682782        2.8500115446
 O          4.3418418104        0.9219334105        4.0073360124
 C          4.5182004487        0.9027148817        1.3605553702
 N          2.0706194056       -0.6673746712       -1.1871051282
 C          2.8354307088       -0.0532472619       -2.1397092348
 N          3.2361043457       -0.8247344609       -3.0998448437
 C          2.7137983321       -2.0561605790       -2.8012407318
 C          1.9647458983       -1.9793949316       -1.5962911061
 C          1.3419134482       -3.1618214658       -1.1605305264
 C          0.5054434252       -3.6272288923       -0.1073915502
 C          0.2751108835       -4.9528744044       -0.3337246070
 N          0.9146068364       -5.3565508560       -1.4655153015
 C          1.5708433906       -4.2936613157       -1.9990315939
 N          2.2854360657       -4.3637118170       -3.1243317565
 C          2.8496010956       -3.2445737329       -3.5212701529
 H          3.0061139951        1.5922216285       -0.2318420170
 H          1.3708744042        2.0027975215       -0.7675846168
 H          2.2121484607        3.1005609566        1.3544869471
 H          0.6505206526        2.2594599051        1.5733292350
 H          2.4151796472       -0.4937686267        3.3180116046
 H          0.7760130763        0.0174511170        2.8255591127
 H          1.5467462841       -1.7477747556        1.2858130142
 H          3.1139167795       -0.9751218087        1.1389512867
 H          3.0857794866        0.9850466439       -2.1150257751
 H          0.0908289153       -3.0918066330        0.7248102970
 H         -0.3131206624       -5.6279416339        0.2546568346
 H          3.4258993365       -3.2813233482       -4.4327058530
 H          0.9093064873       -6.2810300116       -1.8629551179
 H         -0.3881085166       -0.9974365973       -0.1987989667
 H         -0.3841015377        0.3572906106        0.9475209457
 H         -0.3556412327        0.6765712038       -0.7728469466
 H          4.1522868488        1.4416959129        0.4986123783
 H          4.1773799913       -0.1222724506        1.3803875302
 H          5.5972894487        0.9359447993        1.4263608711
  42
    -0.611621 !GC
 C          0.0000000000        0.0000000000        0.0000000000
 C          1.5301400168        0.0000000000        0.0000000000
 C          1.9783854012        1.4658700457        0.0000000000
 C          2.2733014234        2.0158729752        1.4054159193
 N          3.3541155689        1.3086837251        2.0305181904
 C          3.5084118164       -0.0390297797        1.5623197620
 C          2.1426102709       -0.6936072856        1.3381280874
 S          4.6434707339        2.1047895371        2.6426682543
 O          4.3137832685        3.5076404660        2.5658504803
 O          4.9656430182        1.5710691670        3.9533729995
 C          6.0607266099        1.8150671847        1.5698620752
 N          2.0277897878       -0.7056329585       -1.1828357346
 C          3.0555146377       -1.6050885548       -1.2003381048
 N          3.3201320145       -2.1072131395       -2.3654376395
 C          2.4402760855       -1.4950328291       -3.2202565629
 C          1.6331539443       -0.5797485206       -2.4972063416
 C          0.7462540477        0.2120544183       -3.2470085999
 C         -0.1668379095        1.2908771401       -3.0750563113
 C         -0.6745327287        1.5899512574       -4.3059442256
 N         -0.1405711530        0.7652733326       -5.2469149498
 C          0.7380886818       -0.0769698891       -4.6440232726
 N          1.4591859264       -0.9823882261       -5.3095942401
 C          2.3123422952       -1.6824103419       -4.5959757500
 H          2.8469869494        1.5949407478       -0.6483673102
 H          1.1626747419        2.0448802348       -0.4378878601
 H          2.5906253395        3.0548501360        1.3330577288
 H          1.3946790403        1.9195097780        2.0460547895
 H          4.0882897512       -0.0550396458        0.6276253838
 H          4.0626285974       -0.5723653602        2.3350183348
 H          1.5110996357       -0.4576665632        2.1951943081
 H          2.2447122670       -1.7714427589        1.2716689819
 H          3.6293583093       -1.8598416058       -0.3356964171
 H         -0.4330952371        1.8218794453       -2.1817144723
 H         -1.3869946126        2.3478643408       -4.5635554663
 H          2.9178783677       -2.4032958147       -5.1234645187
 H         -0.3321418166        0.7756812154       -6.2346149264
 H         -0.3960905999       -1.0045674703       -0.0940055297
 H         -0.3752242570        0.4546177890        0.9158358317
 H         -0.3642111016        0.5989734560       -0.8265318041
 H          6.2496710363        0.7508328461        1.5631894337
 H          6.9010972006        2.3604492003        1.9709328524
 H          5.7830386959        2.1495732428        0.5789290941
  42
    -0.611241 !GC
 C          0.0000000000        0.0000000000        0.0000000000
 C          1.5295768131        0.0000000000        0.0000000000
 C          1.9764597859        1.4718142549        0.0000000000
 C          1.7068126498        2.2025306707        1.3202806912
 N          2.3225565473        1.5480876216        2.4558013813
 C          1.9514679779        0.1622565724        2.6425371772
 C          2.1026342330       -0.6599845604        1.3642516533
 S          3.8713275232        1.9480713235        2.8930441629
 O          4.8778599592        1.3635597656        2.0168585011
 O          3.9158416123        3.3851514902        3.0385410700
 C          4.0134060044        1.2274132494        4.5263080244
 N          2.0219571841       -0.7052958955       -1.1864194369
 C          3.0216676274       -1.6358749343       -1.2067121525
 N          3.2390176495       -2.1755637932       -2.3649355079
 C          2.3506503635       -1.5625439007       -3.2114069939
 C          1.5938207354       -0.5997680863       -2.4912221059
 C          0.7243765780        0.2161957937       -3.2335746300
 C         -0.1157997081        1.3516669175       -3.0615337567
 C         -0.6573793251        1.6387691552       -4.2805376416
 N         -0.2110954873        0.7539211731       -5.2133551212
 C          0.6487487556       -0.1135558825       -4.6191032139
 N          1.3113663380       -1.0648764908       -5.2821939057
 C          2.1687824211       -1.7722422441       -4.5804940852
 H          3.0386498112        1.5351613342       -0.2504236899
 H          1.4378342702        1.9893228334       -0.7965426486
 H          2.1252760280        3.2064401379        1.2838059773
 H          0.6341006942        2.2608378267        1.5268521143
 H          2.6144118760       -0.2541660016        3.4017405387
 H          0.9256950808        0.1190735043        3.0108798786
 H          1.6532380477       -1.6445856726        1.4930374934
 H          3.1676810881       -0.7734222373        1.1824357827
 H          3.6146208681       -1.8809883070       -0.3515420426
 H         -0.2907236602        1.9337605850       -2.1785152559
 H         -1.3346324022        2.4283879059       -4.5375228245
 H          2.7357305671       -2.5227667955       -5.1097431364
 H         -0.4383551530        0.7484951179       -6.1935248168
 H         -0.3845327276       -0.9800201657       -0.2695175828
 H         -0.3970857694        0.3098249107        0.9601377120
 H         -0.3511340491        0.7005560472       -0.7525712844
 H          4.9566294380        1.5515065716        4.9420593086
 H          3.9546476259        0.1576712412        4.3982690545
 H          3.1947971912        1.5940673282        5.1332771408
  42
    -0.609298 !GC
 C          0.0000000000        0.0000000000        0.0000000000
 C          1.5337407856        0.0000000000        0.0000000000
 C          1.9154419334        1.4895583169        0.0000000000
 C          3.4240391219        1.7408153457        0.1124089254
 N          4.0246031985        1.0140081791        1.2089369029
 C          3.6275921077       -0.3737327333        1.2953198808
 C          2.1105372093       -0.5465901089        1.2679159688
 S          4.4910743291        1.8519233273        2.5581295115
 O          3.9150346902        3.1836354580        2.5440412937
 O          4.2380085828        1.0613446906        3.7481778678
 C          6.2598943516        1.9926134468        2.3215165965
 N          2.0274662797       -0.7207525606       -1.1711935183
 C          2.9622997629       -1.7159809101       -1.1687062730
 N          3.2033360176       -2.2403258006       -2.3294192327
 C          2.3955646231       -1.5540634071       -3.1998642152
 C          1.6601813049       -0.5688346714       -2.4904379733
 C          0.8428808499        0.2868253781       -3.2482435506
 C          0.0123850649        1.4306139329       -3.0809203939
 C         -0.4713625600        1.7596270570       -4.3136670116
 N          0.0030113883        0.8943635810       -5.2507130557
 C          0.8172812669       -0.0069910807       -4.6433868786
 N          1.4745068012       -0.9650986800       -5.3018661230
 C          2.2672473970       -1.7256440317       -4.5801933688
 H          1.5570227041        2.0090825611       -0.8856937593
 H          1.4082043183        1.9194567792        0.8687581582
 H          3.9148372648        1.4123855513       -0.8080029485
 H          3.6448604238        2.7943023520        0.2797350899
 H          4.0511391742       -0.9073786460        0.4379714368
 H          4.0657521536       -0.7627400504        2.2138409681
 H          1.6443411835       -0.0453209810        2.1157622001
 H          1.9050752228       -1.6089868650        1.3597249819
 H          3.4889868884       -2.0302396399       -0.2930888326
 H         -0.2002876442        1.9848016419       -2.1886076875
 H         -1.1266089648        2.5652793546       -4.5776568120
 H          2.8214317437       -2.4914741492       -5.1009819826
 H         -0.1881558018        0.9132877158       -6.2382716942
 H         -0.3747618168        0.7385398929       -0.7058295262
 H         -0.3697339684       -0.9871682061       -0.2752855492
 H         -0.3839084101        0.2425322075        0.9812701730
 H          6.5933848795        0.9838877323        2.1183451387
 H          6.7167063977        2.3964658274        3.2121079691
 H          6.4245901998        2.5981492562        1.4406716409
  42
    -0.608043 !GC
 C          0.0000000000        0.0000000000        0.0000000000
 C          1.5283694075        0.0000000000        0.0000000000
 C          2.0398555393        1.4528548237        0.0000000000
 C          1.8201325594        2.1513039081        1.3415881943
 N          2.2830226638        1.3527525753        2.4593124393
 C          1.7089342401        0.0248290017        2.5396905077
 C          1.9494635925       -0.7890935405        1.2654987031
 S          3.8809851785        1.5321753515        2.9247172139
 O          4.3215810672        2.9166135870        2.9357727959
 O          4.2192728272        0.7733690088        4.1166933780
 C          4.5138420042        0.7080371371        1.4808053494
 N          2.0704278384       -0.6459720218       -1.1989381235
 C          2.8363488640       -1.7785991692       -1.1901306614
 N          3.2351459792       -2.1777890206       -2.3560027672
 C          2.7112480192       -1.2672993323       -3.2363697544
 C          1.9625901564       -0.2904853182       -2.5263467567
 C          1.3385223943        0.7098645986       -3.2915874463
 C          0.5014954241        1.8480380682       -3.1204862278
 C          0.2682456395        2.3648180108       -4.3614305895
 N          0.9058997473        1.6239739807       -5.3088385152
 C          1.5644192530        0.6057778367       -4.6968267397
 N          2.2782747737       -0.3075912927       -5.3586583303
 C          2.8443376130       -1.2407835367       -4.6258571202
 H          3.1065324379        1.4739080683       -0.2207090801
 H          1.5381094914        2.0007995749       -0.8002305725
 H          2.4039490075        3.0701874360        1.3371374507
 H          0.7655202290        2.3794923529        1.5097597523
 H          2.2069093836       -0.4924111201        3.3582149038
 H          0.6446428821        0.1319968900        2.7564794471
 H          1.3758959683       -1.7211730705        1.3062656367
 H          3.0074955190       -1.0409883002        1.2418599954
 H          3.0879311532       -2.3127027795       -0.2997710523
 H          0.0897359246        2.2659706486       -2.2221562217
 H         -0.3202324655        3.2231433449       -4.6162093146
 H          3.4194105984       -1.9917119951       -5.1451391288
 H          0.8974605765        1.7811428506       -6.3027166183
 H         -0.3882023459        0.6125048469        0.8118450756
 H         -0.3783138405        0.3576125937       -0.9571659216
 H         -0.3620319115       -1.0087575109        0.1358463019
 H          4.1305464109        1.2519206153        0.6294290116
 H          4.1131861885       -0.2951918920        1.5053526534
 H          5.5951586998        0.7091710554        1.5040564588
  42
    -0.606820 !GC
 C          0.0000000000        0.0000000000        0.0000000000
 C          1.5283020350        0.0000000000        0.0000000000
 C          1.9495949668        1.4779886588        0.0000000000
 C          1.7153941014        2.1321682833        1.3643792504
 N          2.2952962859        1.3648663361        2.4481954206
 C          1.8322427064       -0.0055216937        2.5409243493
 C          2.0476135071       -0.7783179532        1.2402365365
 S          3.8952046708        1.6633653342        2.8391954776
 O          4.2298051594        3.0773510752        2.8457797093
 O          4.3461986503        0.9228754260        4.0049392283
 C          4.5198249166        0.9014167809        1.3580217422
 N          2.0704555473       -0.6668548929       -1.1874799034
 C          2.8359575567       -0.0525119944       -2.1393943667
 N          3.2359411101       -0.8234181220       -3.1002793740
 C          2.7130829827       -2.0548156215       -2.8024974026
 C          1.9641442748       -1.9786006343       -1.5974483365
 C          1.3407075540       -3.1609980697       -1.1625319182
 C          0.5039677996       -3.6268563854       -0.1098071626
 C          0.2728950239       -4.9521850626       -0.3372559352
 N          0.9116384095       -5.3550597071       -1.4697484331
 C          1.5687882030       -4.2921999167       -2.0020968060
 N          2.2832093079       -4.3616802965       -3.1275270275
 C          2.8480235740       -3.2426089309       -3.5235683553
 H          3.0059356996        1.5921740581       -0.2330818031
 H          1.3701847432        2.0027747427       -0.7668350284
 H          2.2134581363        3.1003610984        1.3540474515
 H          0.6520445739        2.2592054395        1.5748887280
 H          2.4177358111       -0.4939239078        3.3180801490
 H          0.7785147212        0.0181390547        2.8263495759
 H          1.5466961016       -1.7474628651        1.2868020283
 H          3.1141539748       -0.9759865456        1.1382884119
 H          3.0867062586        0.9857491291       -2.1139200368
 H          0.0899710092       -3.0920234253        0.7231257200
 H         -0.3154200670       -5.6274886937        0.2508020848
 H          3.4243646736       -3.2790425889       -4.4350344472
 H          0.9054011917       -6.2790279244       -1.8683005582
 H         -0.3839563140       -0.9937002145       -0.1951723491
 H         -0.3783477398        0.3423965740        0.9627872014
 H         -0.3659587058        0.6637519486       -0.7776098763
 H          5.5975448048        0.9839935005        1.3993074361
 H          4.1349297095        1.4824278759        0.5321392557
 H          4.1978596298       -0.1294137126        1.3224906807
  42
    -0.605628 !GC
 C          0.0000000000        0.0000000000        0.0000000000
 C          1.5299864731        0.0000000000        0.0000000000
 C          1.9791638841        1.4656091314        0.0000000000
 C          2.2818349915        2.0119964188        1.4050581776
 N          3.3665797515        1.3049245075        2.0247170276
 C          3.5127030448       -0.0458377855        1.5624183221
 C          2.1428585588       -0.6930154672        1.3422261193
 S          4.6673881173        2.1059548766        2.6067827001
 O          4.3313977905        3.5076574527        2.5369098489
 O          5.0205875077        1.5747862725        3.9103183420
 C          6.0609537442        1.8194327176        1.5023654160
 N          2.0288105354       -0.7065913759       -1.1818067780
 C          3.0583372114       -1.6040415123       -1.1974544102
 N          3.3190548554       -2.1137358827       -2.3602128706
 C          2.4347942916       -1.5088180360       -3.2156711081
 C          1.6290016159       -0.5893220129       -2.4955038407
 C          0.7379636487        0.1966553504       -3.2466656754
 C         -0.1742851618        1.2768366584       -3.0783417509
 C         -0.6893276106        1.5655031956       -4.3086925454
 N         -0.1606135221        0.7331628544       -5.2458759455
 C          0.7221912322       -0.1036053687       -4.6412654234
 N          1.4407654863       -1.0133780715       -5.3037550936
 C          2.2994544609       -1.7061575150       -4.5896401310
 H          2.8452531283        1.5955660207       -0.6516496303
 H          1.1619065377        2.0463071389       -0.4329149601
 H          2.5983018812        3.0512381302        1.3326830767
 H          1.4062089884        1.9142796799        2.0497482960
 H          4.0915315294       -0.0697264912        0.6273003681
 H          4.0651261814       -0.5782978884        2.3369448872
 H          1.5134509071       -0.4500181782        2.1988612855
 H          2.2390334292       -1.7717120836        1.2803265120
 H          3.6369067265       -1.8508433379       -0.3335516219
 H         -0.4345884264        1.8160738438       -2.1880551242
 H         -1.4034056016        2.3211742733       -4.5685146952
 H          2.9052615861       -2.4282243409       -5.1152175068
 H         -0.3569994171        0.7363526368       -6.2327714324
 H         -0.3786440553        0.4150412230        0.9301682384
 H         -0.3857723957        0.5640458585       -0.8442470666
 H         -0.3709375970       -1.0146494278       -0.0881071526
 H          6.2343577227        0.7526772330        1.4894656764
 H          6.9134734728        2.3407758284        1.9149742832
 H          5.8090550874        2.2102443215        0.5271831914
  42
    -0.605424 !GC
 C          0.0000000000        0.0000000000        0.0000000000
 C          1.5298417611        0.0000000000        0.0000000000
 C          2.0989880484        1.4457148088        0.0000000000
 C          1.8794455767        2.1476589326        1.3446083275
 N          2.2612109158        1.3461221299        2.4892535071
 C          1.6962675503        0.0159210432        2.5245211555
 C          2.0062159028       -0.7531639847        1.2411554287
 S          3.7792545855        1.5985362882        3.1056196179
 O          3.8719031373        0.7905185574        4.3007964254
 O          4.8472807940        1.4241701726        2.1311892188
 C          3.7201696194        3.3229389915        3.5850012040
 N          2.0215184230       -0.6148405683       -1.2360099560
 C          2.9495895749       -0.0789551389       -2.0828983009
 N          3.2399668511       -0.8162479803       -3.1085614901
 C          2.4594582094       -1.9356430575       -2.9699250139
 C          1.6792646935       -1.8288012257       -1.7892700083
 C          0.7928142690       -2.8817939509       -1.5096210153
 C         -0.1759129670       -3.2608025793       -0.5386402119
 C         -0.6817064969       -4.4674783305       -0.9259436163
 N         -0.0951718618       -4.8726872959       -2.0853138102
 C          0.8104017541       -3.9361141929       -2.4695124101
 N          1.5555281381       -4.0408058773       -3.5729001625
 C          2.3761763124       -3.0432694447       -3.8163028670
 H          3.1661332460        1.4183444426       -0.2229086044
 H          1.6394514255        2.0495060973       -0.7842223214
 H          2.4785897805        3.0566748053        1.3655359449
 H          0.8256098680        2.4121215377        1.4640520252
 H          2.1544771045       -0.4856718351        3.3767123907
 H          0.6218087445        0.1040266454        2.6964594424
 H          1.5164097979       -1.7275492902        1.2579492491
 H          3.0856718869       -0.8883102814        1.1906437485
 H          3.4040911566        0.8763689692       -1.9290861078
 H         -0.4661977488       -2.7516468258        0.3589762694
 H         -1.4284199726       -5.0623126576       -0.4392577809
 H          2.9820295407       -3.1117655941       -4.7068382190
 H         -0.2786362843       -5.7264759571       -2.5849918041
 H         -0.4074241613        0.5942994479       -0.8111262731
 H         -0.3627196872       -1.0229320532       -0.0809081027
 H         -0.3631750240        0.4154855718        0.9329813312
 H          4.6942853054        3.5831257865        3.9736070514
 H          2.9410529177        3.4379675488        4.3224957175
 H          3.5002891826        3.8935749458        2.6910897625
  42
    -0.604025 !GC
 C          0.0000000000        0.0000000000        0.0000000000
 C          1.5296907407        0.0000000000        0.0000000000
 C          2.0988623983        1.4457175664        0.0000000000
 C          1.8787813142        2.1469348743        1.3449098304
 N          2.2628216204        1.3451510118        2.4886292133
 C          1.6983997912        0.0147388732        2.5243251922
 C          2.0065633335       -0.7535952732        1.2401666539
 S          3.7815944348        1.5985591274        3.1030320962
 O          3.8799753148        0.7843053090        4.2935434478
 O          4.8472558047        1.4334252504        2.1245172978
 C          3.7185001885        3.3199810099        3.5923452650
 N          2.0218361021       -0.6145456083       -1.2358854424
 C          2.9483762294       -0.0771829481       -2.0834798801
 N          3.2363674842       -0.8123687870       -3.1113765174
 C          2.4562134144       -1.9321332526       -2.9731750290
 C          1.6781543319       -1.8273739263       -1.7908036801
 C          0.7932771445       -2.8814605692       -1.5102826644
 C         -0.1713538427       -3.2634216394       -0.5363928158
 C         -0.6775847867       -4.4696944987       -0.9243090569
 N         -0.0961872894       -4.8713623127       -2.0875011834
 C          0.8075245880       -3.9334158469       -2.4728838508
 N          1.5483666526       -4.0349542824       -3.5794882027
 C          2.3691592339       -3.0373884984       -3.8225266630
 H          3.1662246454        1.4189773377       -0.2221550922
 H          1.6398037268        2.0492436528       -0.7847560616
 H          2.4769677956        3.0565512249        1.3658370686
 H          0.8247607535        2.4100321375        1.4654269074
 H          2.1585749829       -0.4872954692        3.3751935425
 H          0.6242000144        0.1022029627        2.6981772322
 H          1.5160776086       -1.7276957414        1.2567034606
 H          3.0859273913       -0.8892240773        1.1887685492
 H          3.4036123889        0.8776196421       -1.9284079021
 H         -0.4589433315       -2.7564691022        0.3633091993
 H         -1.4224308590       -5.0657972295       -0.4363366841
 H          2.9715985805       -3.1037134536       -4.7155005021
 H         -0.2811747890       -5.7240742782       -2.5885388217
 H         -0.3687450269        0.4005081921        0.9444288758
 H         -0.4011073464        0.5817758949       -0.8210174730
 H         -0.3632662746       -1.0168250627       -0.0953560439
 H          3.4994622044        3.9115333667        2.7132330098
 H          4.6858032804        3.5596350724        4.0062006529
 H          2.9274753556        3.4247835654        4.3226857059
  42
    -0.603395 !GC
 C          0.0000000000        0.0000000000        0.0000000000
 C          1.5300972466        0.0000000000        0.0000000000
 C          1.9791731777        1.4657245481        0.0000000000
 C          2.2653461693        2.0190511835        1.4059663936
 N          3.3433135898        1.3144196365        2.0388184471
 C          3.5090740226       -0.0312608911        1.5682725536
 C          2.1498747816       -0.6983910300        1.3420208850
 S          4.6238037712        2.1152588046        2.6632478477
 O          4.2817345748        3.5158622532        2.6010856340
 O          4.9468281373        1.5698902549        3.9688226683
 C          6.0462330951        1.8500202965        1.5906511476
 N          2.0276141605       -0.7071159312       -1.1819469448
 C          3.0536171669       -1.6086691066       -1.1969251705
 N          3.3129088708       -2.1194551861       -2.3594526654
 C          2.4302692020       -1.5123444337       -3.2151265729
 C          1.6280033490       -0.5889441464       -2.4954308312
 C          0.7400056807        0.2002166582       -3.2466026043
 C         -0.1682848489        1.2835738194       -3.0778834327
 C         -0.6831430010        1.5735997855       -4.3079728809
 N         -0.1582798831        0.7388376394       -5.2451445542
 C          0.7216922287       -0.1009481941       -4.6408629601
 N          1.4359750249       -1.0140763412       -5.3031624466
 C          2.2928517715       -1.7092750415       -4.5893237255
 H          2.8518485317        1.5934844476       -0.6432664857
 H          1.1662215975        2.0442001669       -0.4437537434
 H          2.5811907373        3.0584690933        1.3336992339
 H          1.3831731416        1.9221945539        2.0416810434
 H          4.0895066746       -0.0413370929        0.6337899616
 H          4.0676606204       -0.5609165338        2.3404180343
 H          1.5144375175       -0.4652643740        2.1969776869
 H          2.2601959702       -1.7755941003        1.2780969448
 H          3.6312450864       -1.8566350657       -0.3328906110
 H         -0.4255870856        1.8240023112       -2.1875348119
 H         -1.3945452119        2.3317071316       -4.5678101616
 H          2.8937211750       -2.4353871348       -5.1149254765
 H         -0.3568721758        0.7411802116       -6.2314762132
 H         -0.3755863735       -1.0176740463       -0.0970779790
 H         -0.3860142307        0.4256418395        0.9222241857
 H         -0.3740566489        0.5766429303       -0.8346109245
 H          6.2244040296        0.7840516838        1.5670783794
 H          6.8861500114        2.3685347276        2.0317463485
 H          5.8172659305        2.2536839529        0.6149927577
  42
    -0.602046 !GC
 C          0.0000000000        0.0000000000        0.0000000000
 C          1.5283694075        0.0000000000        0.0000000000
 C          2.0406950055        1.4525857686        0.0000000000
 C          1.8228897101        2.1511548268        1.3416043086
 N          2.2882621404        1.3526156624        2.4583019075
 C          1.7123592375        0.0255231221        2.5404472595
 C          1.9487589389       -0.7896796216        1.2661862402
 S          3.8882045469        1.5296585000        2.9175943051
 O          4.3392984416        2.9104302063        2.8947785755
 O          4.2225838476        0.7970136993        4.1270961959
 C          4.5131109314        0.6640216089        1.4945938883
 N          2.0704034727       -0.6454102868       -1.1993379772
 C          2.8337164516       -1.7798011102       -1.1908680123
 N          3.2315400364       -2.1795953012       -2.3568371791
 C          2.7098048210       -1.2676839099       -3.2369048389
 C          1.9637530363       -0.2889956661       -2.5265922551
 C          1.3417028588        0.7126756036       -3.2917796442
 C          0.5064236015        1.8522071682       -3.1207846000
 C          0.2753866477        2.3702736764       -4.3616860917
 N          0.9119355491        1.6284168747       -5.3089214546
 C          1.5678048262        0.6085140407       -4.6969254523
 N          2.2796252780       -0.3063374919       -5.3588890000
 C          2.8433508767       -1.2410302292       -4.6263046181
 H          3.1073670970        1.4729812789       -0.2210504030
 H          1.5390268079        2.0008672397       -0.8000664624
 H          2.4065995576        3.0701272057        1.3352769669
 H          0.7685475223        2.3788008065        1.5118650532
 H          2.2109177325       -0.4916906861        3.3586923714
 H          0.6486914533        0.1346547762        2.7589021677
 H          1.3721795261       -1.7197204397        1.3087037962
 H          3.0058017225       -1.0450982481        1.2411545304
 H          3.0838796029       -2.3150086277       -0.3007805531
 H          0.0936177472        2.2697203703       -2.2226569419
 H         -0.3114688459        3.2296463218       -4.6166674194
 H          3.4182093953       -1.9921489050       -5.1455012660
 H          0.9041041734        1.7859813291       -6.3027738321
 H         -0.3886201889        0.6135371990        0.8108658972
 H         -0.3780142819        0.3561258799       -0.9578466668
 H         -0.3619855912       -1.0085849017        0.1367995496
 H          4.1013204758       -0.3352615430        1.5359206755
 H          5.5919109260        0.6662916030        1.5279384217
 H          4.1264766045        1.1763151663        0.6239478757
  42
    -0.601563 !GC
 C          0.0000000000        0.0000000000        0.0000000000
 C          1.5283339549        0.0000000000        0.0000000000
 C          1.9500983123        1.4779602119        0.0000000000
 C          1.7165393131        2.1325382225        1.3642259904
 N          2.2934871146        1.3643473189        2.4489240499
 C          1.8283193917       -0.0055225300        2.5406275861
 C          2.0467889402       -0.7782617055        1.2403004001
 S          3.8936518593        1.6563040366        2.8443215938
 O          4.2396214403        3.0675251180        2.8329437232
 O          4.3324129396        0.9287503417        4.0226870734
 C          4.5201251681        0.8664389045        1.3786317481
 N          2.0702511269       -0.6672060709       -1.1873803921
 C          2.8325569965       -0.0524050152       -2.1416082460
 N          3.2330062756       -0.8237794313       -3.1019142708
 C          2.7138596981       -2.0560441939       -2.8013603928
 C          1.9666595602       -1.9798340941       -1.5953179247
 C          1.3463768659       -3.1630766726       -1.1581240413
 C          0.5112969788       -3.6289524245       -0.1040739661
 C          0.2840754414       -4.9554491625       -0.3286963006
 N          0.9238676834       -5.3589456640       -1.4603378783
 C          1.5771640130       -4.2952362389       -1.9955768629
 N          2.2910220911       -4.3648981406       -3.1212568860
 C          2.8510506919       -3.2447022413       -3.5205555274
 H          3.0064394104        1.5925234227       -0.2331102564
 H          1.3707606718        2.0031578505       -0.7666408748
 H          2.2170494379        3.0994550141        1.3541367220
 H          0.6533268955        2.2621957226        1.5737476147
 H          2.4111826421       -0.4943985042        3.3194206671
 H          0.7739030878        0.0191264790        2.8235460588
 H          1.5468026284       -1.7479544576        1.2854061098
 H          3.1136889371       -0.9744162871        1.1393824827
 H          3.0797040687        0.9866913216       -2.1189816467
 H          0.0955931112       -3.0933231744        0.7275290984
 H         -0.3016678838       -5.6314115498        0.2611060955
 H          3.4270476536       -3.2811870555       -4.4322723288
 H          0.9207255170       -6.2838532162       -1.8566492864
 H         -0.3887672129       -0.9978819835       -0.1949620362
 H         -0.3842275945        0.3610551274        0.9459592082
 H         -0.3552365706        0.6736496195       -0.7754450581
 H          4.1023565652        1.4068434495        0.5415219469
 H          4.1506292875       -0.1487199541        1.4006704817
 H          5.6011494418        0.9003655622        1.3786488248
  42
    -0.601137 !GC
 C          0.0000000000        0.0000000000        0.0000000000
 C          1.5283959022        0.0000000000        0.0000000000
 C          2.0404574047        1.4526202945        0.0000000000
 C          1.8190599914        2.1511971934        1.3411134777
 N          2.2835176084        1.3533005184        2.4587165013
 C          1.7106874945        0.0249297901        2.5399914940
 C          1.9491104774       -0.7892385843        1.2654917761
 S          3.8814679301        1.5372466401        2.9219320333
 O          4.3217090461        2.9217317321        2.9162548703
 O          4.2205585354        0.7927342455        4.1227874526
 C          4.5137959357        0.6953414649        1.4880372879
 N          2.0702667252       -0.6458044232       -1.1991295525
 C          2.8319580475       -1.7812882521       -1.1910142437
 N          3.2314443237       -2.1798130196       -2.3569026136
 C          2.7126912603       -1.2656716976       -3.2365022973
 C          1.9661361813       -0.2875158609       -2.5260752821
 C          1.3464960838        0.7160389653       -3.2907147036
 C          0.5114341556        1.8556519863       -3.1192520821
 C          0.2837810718        2.3765030376       -4.3595338341
 N          0.9220151813        1.6361670263       -5.3069479678
 C          1.5757986448        0.6145666742       -4.6955806410
 N          2.2883626895       -0.2996131842       -5.3576779422
 C          2.8493418424       -1.2364104286       -4.6256122704
 H          3.1075987411        1.4730957159       -0.2187312005
 H          1.5402979823        2.0003580261       -0.8013475479
 H          2.4012169735        3.0711179825        1.3361833000
 H          0.7640154210        2.3774587849        1.5090182010
 H          2.2104116053       -0.4916163526        3.3579313169
 H          0.6466891401        0.1314257377        2.7585691164
 H          1.3738465162       -1.7202454850        1.3070025571
 H          3.0065705548       -1.0432588902        1.2412136879
 H          3.0793806901       -2.3183604717       -0.3012849458
 H          0.0965370028        2.2711915405       -2.2212194900
 H         -0.3017220508        3.2369504479       -4.6139565355
 H          3.4241663242       -1.9874177156       -5.1450480598
 H          0.9165407338        1.7958369166       -6.3004642015
 H         -0.3885839471        0.6092856408        0.8140635937
 H         -0.3782097035        0.3611855898       -0.9558522250
 H         -0.3620188413       -1.0092833883        0.1316638906
 H          5.5925086522        0.7395054158        1.5533649086
 H          4.1707614100        1.2577455499        0.6315782785
 H          4.1542515849       -0.3235170254        1.4829216306
  42
    -0.600272 !GC
 C          0.0000000000        0.0000000000        0.0000000000
 C          1.5297492816        0.0000000000        0.0000000000
 C          2.0986193543        1.4458054858        0.0000000000
 C          1.8786637777        2.1472633821        1.3447496835
 N          2.2641879375        1.3461920235        2.4885672328
 C          1.7003603972        0.0154176195        2.5247367809
 C          2.0065889810       -0.7533729378        1.2402683180
 S          3.7853541879        1.5990690283        3.0972311507
 O          3.8947674311        0.7724253254        4.2784022899
 O          4.8453515475        1.4471540458        2.1104937401
 C          3.7198830698        3.3153214199        3.6044304721
 N          2.0230014511       -0.6156073650       -1.2350294821
 C          2.9523407301       -0.0801527592       -2.0808231979
 N          3.2310181488       -0.8098861901       -3.1151036052
 C          2.4399384870       -1.9228340962       -2.9843572603
 C          1.6653385638       -1.8197768844       -1.7997081527
 C          0.7729877658       -2.8687784060       -1.5240098379
 C         -0.1866594963       -3.2531992497       -0.5462137252
 C         -0.7077308353       -4.4499346303       -0.9438854268
 N         -0.1395081825       -4.8436773709       -2.1162995896
 C          0.7704462172       -3.9102737004       -2.4979476452
 N          1.5033926296       -4.0073640204       -3.6101647315
 C          2.3331035388       -3.0158373973       -3.8473620418
 H          3.1658656152        1.4187212011       -0.2222637232
 H          1.6394917286        2.0495316683       -0.7845179150
 H          2.4753969573        3.0578948928        1.3654794287
 H          0.8242953141        2.4087441342        1.4656529522
 H          2.1613078249       -0.4866164617        3.3751579192
 H          0.6264126776        0.1029390719        2.7002761622
 H          1.5152392635       -1.7270089558        1.2571400963
 H          3.0857242270       -0.8902158503        1.1875780383
 H          3.4163510246        0.8694719150       -1.9199055632
 H         -0.4599030735       -2.7553625648        0.3630177572
 H         -1.4533965432       -5.0451297183       -0.4560206357
 H          2.9304604939       -3.0794448029       -4.7439781661
 H         -0.3358058712       -5.6893017492       -2.6249387346
 H         -0.3911419125       -1.0082999012       -0.1224913222
 H         -0.3855987744        0.4230100344        0.9237416067
 H         -0.3567073875        0.6011705436       -0.8261644585
 H          3.4842339803        3.8890493472        2.7214186315
 H          4.6854693285        3.5670771641        4.0188049669
 H          2.9481508685        3.4205064607        4.3571050463
  42
    -0.599786 !GC
 C          0.0000000000        0.0000000000        0.0000000000
 C          1.5295481735        0.0000000000        0.0000000000
 C          2.0106590535        1.4463135860        0.0000000000
 C          1.7073394068        2.1445530297        1.3247300630
 N          2.2732135723        1.4226351789        2.4421363697
 C          1.8854565177        0.0298531289        2.5333139361
 C          2.1021865716       -0.7563915052        1.2357469665
 S          3.7992654739        1.8063988816        2.9638885757
 O          4.8548412246        1.0547913994        2.2996424211
 O          3.9033711454        3.2464619719        2.8907404930
 C          3.7533827381        1.3234648814        4.6877940459
 N          2.0218977994       -0.7319130121       -1.1702180405
 C          2.9464169690       -1.7372373209       -1.1554455309
 N          3.2241505331       -2.2380424511       -2.3181952193
 C          2.4382258088       -1.5396907577       -3.1992379319
 C          1.6675453506       -0.5802049813       -2.4924465044
 C          0.7819970387        0.2100321541       -3.2435297307
 C         -0.1719486240        1.2499681572       -3.0608845584
 C         -0.6881848072        1.5417139907       -4.2897734865
 N         -0.1228369598        0.7458020601       -5.2380547584
 C          0.7806674650       -0.0739825263       -4.6409119608
 N          1.5089631516       -0.9754980287       -5.3046589961
 C          2.3335335801       -1.7013070312       -4.5827101626
 H          3.0893306849        1.4732150064       -0.1478132381
 H          1.5152396761        1.9666856438       -0.8206173319
 H          2.1679227381        3.1322522784        1.3367987382
 H          0.6336147486        2.2486940087        1.4923822252
 H          2.4822514571       -0.4268523497        3.3212757447
 H          0.8313250563       -0.0001079212        2.8208165558
 H          1.6391588705       -1.7383438827        1.3455315185
 H          3.1686834343       -0.9362418906        1.0961977419
 H          3.4081990690       -2.0987854832       -0.2616546235
 H         -0.4450224152        1.7642214378       -2.1608402480
 H         -1.4291323241        2.2732974686       -4.5428220307
 H          2.9261011072       -2.4366346472       -5.1050677280
 H         -0.3178458194        0.7560390718       -6.2250526462
 H         -0.3848762957        0.4481422110       -0.9120708505
 H         -0.3623041911       -1.0224647631        0.0876927412
 H         -0.3856294755        0.5662345697        0.8378181330
 H          2.9760146621        1.9034058821        5.1642014274
 H          4.7260148826        1.5550495730        5.1013337164
 H          3.5497626788        0.2639599872        4.7399707104
  42
    -0.598690 !GC
 C          0.0000000000        0.0000000000        0.0000000000
 C          1.5296214758        0.0000000000        0.0000000000
 C          2.0101341105        1.4463444097        0.0000000000
 C          1.7021409612        2.1449339372        1.3234600151
 N          2.2655116175        1.4240204179        2.4427689902
 C          1.8811733529        0.0303375279        2.5337302378
 C          2.1027097721       -0.7551640303        1.2365518039
 S          3.7871805395        1.8134289798        2.9729132580
 O          4.8476727798        1.0548761756        2.3245483336
 O          3.8923967838        3.2527819892        2.8872240656
 C          3.7264960426        1.3461792077        4.7006662489
 N          2.0210326621       -0.7328389573       -1.1699716712
 C          2.9485265256       -1.7354975516       -1.1554220335
 N          3.2420044249       -2.2218645846       -2.3204313501
 C          2.4649306498       -1.5156328826       -3.2029411546
 C          1.6830416254       -0.5664520244       -2.4946792914
 C          0.7976338042        0.2230015112       -3.2467696788
 C         -0.1754346842        1.2447326512       -3.0623028059
 C         -0.6767811230        1.5489581720       -4.2943871292
 N         -0.0846736807        0.7772113390       -5.2463179966
 C          0.8211520719       -0.0392430309       -4.6482002197
 N          1.5697938702       -0.9221733321       -5.3143486059
 C          2.3886813846       -1.6524692990       -4.5904800116
 H          3.0892980866        1.4735776196       -0.1440256415
 H          1.5174977310        1.9660828250       -0.8226677729
 H          2.1619028808        3.1329589050        1.3364812466
 H          0.6278273208        2.2483013857        1.4878567792
 H          2.4778649692       -0.4242457521        3.3230233706
 H          0.8266159201       -0.0025556725        2.8192155314
 H          1.6433059734       -1.7389423155        1.3452056409
 H          3.1701109892       -0.9311242433        1.0987256676
 H          3.4001552259       -2.1063812967       -0.2602424545
 H         -0.4726185594        1.7378603024       -2.1580532458
 H         -1.4254387837        2.2727568349       -4.5470930063
 H          2.9966638055       -2.3740168542       -5.1144190749
 H         -0.2654861232        0.7995050066       -6.2358630099
 H         -0.3845565587       -1.0146809646        0.0575959872
 H         -0.4011456472        0.5877989457        0.8167339940
 H         -0.3469803812        0.4370154205       -0.9333536260
 H          4.7011733061        1.5585920088        5.1119001036
 H          3.4876517652        0.2922339603        4.7554628702
 H          2.9503325686        1.9326755489        5.1733936063
  42
    -0.596657 !GC
 C          0.0000000000        0.0000000000        0.0000000000
 C          1.5300898028        0.0000000000        0.0000000000
 C          1.9780467251        1.4659978002        0.0000000000
 C          2.2731542139        2.0162288700        1.4053201084
 N          3.3558398099        1.3114561115        2.0301932697
 C          3.5113351765       -0.0369264184        1.5641627448
 C          2.1461792806       -0.6937310697        1.3429268017
 S          4.6458259381        2.1123553712        2.6352047903
 O          4.3103851763        3.5139841618        2.5609426737
 O          4.9777162337        1.5794540805        3.9438004644
 C          6.0576561065        1.8290103116        1.5534401576
 N          2.0280814311       -0.7061769277       -1.1823696289
 C          3.0551494011       -1.6063545806       -1.1993319146
 N          3.3189946357       -2.1098650614       -2.3639943405
 C          2.4393530513       -1.4979026994       -3.2191501893
 C          1.6329161050       -0.5813838465       -2.4967055970
 C          0.7460459364        0.2101892220       -3.2467776397
 C         -0.1663533346        1.2896914382       -3.0754558904
 C         -0.6747534570        1.5875153360       -4.3063692560
 N         -0.1418255564        0.7614547634       -5.2467509504
 C          0.7369551905       -0.0803635625       -4.6434496010
 N          1.4571279017       -0.9869798676       -5.3083961157
 C          2.3104602318       -1.6865659311       -4.5946384861
 H          2.8467041184        1.5952190470       -0.6483207057
 H          1.1622265283        2.0447968688       -0.4379817734
 H          2.5881460836        3.0558833193        1.3329866114
 H          1.3951343869        1.9179689606        2.0465178066
 H          4.0896218540       -0.0539917459        0.6284877468
 H          4.0678422080       -0.5679846117        2.3367905591
 H          1.5148945665       -0.4552100451        2.1994026657
 H          2.2489638546       -1.7717541936        1.2801681308
 H          3.6295929632       -1.8599253940       -0.3347862708
 H         -0.4316217797        1.8219521778       -2.1826058692
 H         -1.3869048106        2.3455906470       -4.5643908532
 H          2.9156822995       -2.4079932283       -5.1217952928
 H         -0.3336834732        0.7712546437       -6.2344525441
 H         -0.3856445381        0.4200270821        0.9245328029
 H         -0.3935658918        0.5693514267       -0.8376991094
 H         -0.3562263260       -1.0195494809       -0.0927371739
 H          6.2333272477        0.7628265105        1.5226486829
 H          6.9049019830        2.3552310425        1.9655308098
 H          5.7831617529        2.1888494092        0.5705007983
  42
    -0.595187 !GC
 C          0.0000000000        0.0000000000        0.0000000000
 C          1.5296402745        0.0000000000        0.0000000000
 C          2.0985925240        1.4458843275        0.0000000000
 C          1.8790835858        2.1476601993        1.3446849430
 N          2.2645812585        1.3471565335        2.4886576749
 C          1.7017537949        0.0160940158        2.5247838347
 C          2.0060204315       -0.7537996381        1.2405422704
 S          3.7830849516        1.6033606664        3.1016369629
 O          3.8936469220        0.7726257928        4.2798444196
 O          4.8451985696        1.4595011481        2.1160092860
 C          3.7105354424        3.3173260665        3.6154508802
 N          2.0206791374       -0.6154067979       -1.2360572495
 C          2.9453986119       -0.0782310250       -2.0856625172
 N          3.2308531996       -0.8132297327       -3.1143911565
 C          2.4499741596       -1.9323520211       -2.9751290201
 C          1.6750387534       -1.8277838002       -1.7907532960
 C          0.7910247999       -2.8819498043       -1.5081651489
 C         -0.1701577515       -3.2645172618       -0.5312118175
 C         -0.6780291981       -4.4704200974       -0.9181293545
 N         -0.1002669638       -4.8716434914       -2.0832641972
 C          0.8020406802       -3.9334073044       -2.4713540781
 N          1.5390726471       -4.0341410833       -3.5806447820
 C          2.3591926179       -3.0364797720       -3.8255450589
 H          3.1656464539        1.4198038559       -0.2240011757
 H          1.6378776762        2.0495903329       -0.7835041879
 H          2.4760519087        3.0581262754        1.3650395284
 H          0.8247698622        2.4094091782        1.4655946716
 H          2.1635711505       -0.4858145126        3.3747672303
 H          0.6278147310        0.1028316684        2.7008992290
 H          1.5109459156       -1.7254603589        1.2593833730
 H          3.0846325814       -0.8942714911        1.1867826460
 H          3.4012320733        0.8764158414       -1.9316755017
 H         -0.4537318711       -2.7582865223        0.3701913577
 H         -1.4210019799       -5.0670098020       -0.4279210865
 H          2.9595335044       -3.1022518566       -4.7199721609
 H         -0.2870583574       -5.7240917709       -2.5840762789
 H         -0.4074768275        0.6015423815       -0.8057657655
 H         -0.3618125191       -1.0224183985       -0.0906442174
 H         -0.3629989433        0.4066966320        0.9368480341
 H          4.6736223004        3.5829994897        4.0234536728
 H          2.9264584950        3.3880400179        4.3575725365
 H          3.4676063647        3.9120596311        2.7453438977
  42
    -0.591653 !GC
 C          0.0000000000        0.0000000000        0.0000000000
 C          1.5283107404        0.0000000000        0.0000000000
 C          1.9499440697        1.4779857891        0.0000000000
 C          1.7161861070        2.1323447765        1.3642984002
 N          2.2935558827        1.3642541364        2.4488314604
 C          1.8286455861       -0.0056780048        2.5407182482
 C          2.0467831754       -0.7783558167        1.2402893806
 S          3.8933678414        1.6572199006        2.8446109161
 O          4.2385760015        3.0685093799        2.8319104137
 O          4.3320212851        0.9310328039        4.0239968222
 C          4.5208586627        0.8659672739        1.3801039691
 N          2.0703031326       -0.6671924817       -1.1873402998
 C          2.8334480007       -0.0526891459       -2.1410761610
 N          3.2330749926       -0.8239813909       -3.1018178581
 C          2.7120387931       -2.0557019374       -2.8023210488
 C          1.9652331248       -1.9794454809       -1.5960092635
 C          1.3439211892       -3.1623035878       -1.1592521100
 C          0.5091113442       -3.6280137262       -0.1049068051
 C          0.2802391274       -4.9540375573       -0.3303436366
 N          0.9186715048       -5.3574497903       -1.4628042122
 C          1.5727077827       -4.2940651109       -1.9977732194
 N          2.2857873871       -4.3637270236       -3.1239381652
 C          2.8472383840       -3.2440095686       -3.5225341282
 H          3.0062994972        1.5926897456       -0.2330962159
 H          1.3705476315        2.0031896369       -0.7666033590
 H          2.2163981886        3.0993851559        1.3542413239
 H          0.6529195164        2.2616225777        1.5738060292
 H          2.4118571764       -0.4944383527        3.3193111026
 H          0.7743354180        0.0188025696        2.8240699287
 H          1.5465835551       -1.7479486916        1.2853543124
 H          3.1136132212       -0.9747622781        1.1391710925
 H          3.0821965116        0.9860186187       -2.1175209791
 H          0.0949039964       -3.0926538661        0.7276263636
 H         -0.3059525321       -5.6296669312        0.2593848184
 H          3.4240193715       -3.2809823574       -4.4337390489
 H          0.9143301502       -6.2820945670       -1.8596808728
 H         -0.3884333669       -0.9979317476       -0.1957010254
 H         -0.3841940040        0.3603833764        0.9463075213
 H         -0.3552309273        0.6741605457       -0.7751032838
 H          5.5985501397        0.9465140919        1.4221028965
 H          4.1395026981        1.4325723835        0.5427895581
 H          4.1965030227       -0.1645596317        1.3624413070
  42
    -0.590293 !GC
 C          0.0000000000        0.0000000000        0.0000000000
 C          1.5284077618        0.0000000000        0.0000000000
 C          2.0405265929        1.4525730615        0.0000000000
 C          1.8180422737        2.1513979297        1.3408121471
 N          2.2822476708        1.3539685319        2.4589420434
 C          1.7097550905        0.0252225913        2.5396041176
 C          1.9493826221       -0.7889729500        1.2653892200
 S          3.8816108206        1.5365457223        2.9189428010
 O          4.3234626717        2.9204170267        2.9115452525
 O          4.2223828191        0.7924916315        4.1193961984
 C          4.5100246479        0.6929867923        1.4845491376
 N          2.0699939317       -0.6461414624       -1.1990759681
 C          2.8313272179       -1.7818755541       -1.1904448261
 N          3.2312699968       -2.1806149221       -2.3560808597
 C          2.7122665883       -1.2670605258       -3.2361562750
 C          1.9655897067       -0.2886523292       -2.5262469787
 C          1.3457761167        0.7144025830       -3.2914942695
 C          0.5103055870        1.8537944323       -3.1209652983
 C          0.2820204330        2.3734690798       -4.3615565768
 N          0.9209174001        1.6329889475       -5.3084495954
 C          1.5752166347        0.6121511024       -4.6962986357
 N          2.2885194360       -0.3018810264       -5.3578550693
 C          2.8493711227       -1.2383188020       -4.6252678038
 H          3.1078650295        1.4729629810       -0.2177779264
 H          1.5411531922        2.0002873547       -0.8018642688
 H          2.3997429618        3.0715722874        1.3360898253
 H          0.7628635897        2.3771322953        1.5082746372
 H          2.2091184594       -0.4911888158        3.3578533074
 H          0.6456225487        0.1316345754        2.7576076959
 H          1.3750570148       -1.7206004822        1.3067075872
 H          3.0070919131       -1.0419695821        1.2413699627
 H          3.0786289021       -2.3185158849       -0.3004019654
 H          0.0959478164        2.2701581605       -2.2231184916
 H         -0.3040397385        3.2333694248       -4.6165340029
 H          3.4253054731       -1.9888012574       -5.1442089119
 H          0.9156023501        1.7919977545       -6.3020860013
 H         -0.3884773240        0.6098120657        0.8137958472
 H         -0.3779783230        0.3607872231       -0.9562304651
 H         -0.3620091364       -1.0093049419        0.1321662324
 H          4.1380230973       -0.3199611326        1.5415412271
 H          5.5882824841        0.6978335628        1.5705908589
 H          4.1766265813        1.2049199610        0.5934175726
  42
    -0.590111 !GC
 C          0.0000000000        0.0000000000        0.0000000000
 C          1.5296729514        0.0000000000        0.0000000000
 C          1.9624110771        1.4731934495        0.0000000000
 C          1.6960942538        2.1315677112        1.3602666464
 N          2.2852072110        1.3877086930        2.4520497247
 C          1.9084531071       -0.0069781575        2.5189301084
 C          2.1463297651       -0.7399649481        1.2014446012
 S          3.8238575387        1.7820913516        2.9208702687
 O          4.7638882346        1.8529680971        1.8072733884
 O          3.7283642743        2.9627323863        3.7447046690
 C          4.2618433807        0.4071244144        3.9813409021
 N          2.0219629289       -0.6923023964       -1.1942516211
 C          2.9019157933       -1.7368910834       -1.2076046821
 N          3.1676989833       -2.2094040947       -2.3848760834
 C          2.4280124146       -1.4414243321       -3.2477642852
 C          1.7040380979       -0.4649920791       -2.5149602620
 C          0.9233247794        0.4407613206       -3.2518121844
 C          0.0896306236        1.5759643427       -3.0488980798
 C         -0.3481516021        1.9774222099       -4.2772731304
 N          0.1590920421        1.1662454399       -5.2453803006
 C          0.9435301797        0.2237644843       -4.6610678191
 N          1.6070095939       -0.7106588115       -5.3468013239
 C          2.3486408370       -1.5335991228       -4.6392406761
 H          3.0278472020        1.5622899190       -0.2035765570
 H          1.4007116313        2.0107814554       -0.7699518044
 H          2.1484060336        3.1206921699        1.3504435144
 H          0.6275190192        2.2269980597        1.5554804336
 H          2.5105277303       -0.4451421198        3.3162468057
 H          0.8528801570       -0.0588484720        2.8028636523
 H          1.7455176786       -1.7491008061        1.2641667818
 H          3.2193719144       -0.8423263906        1.0313500118
 H          3.3584082217       -2.1330875758       -0.3258248652
 H         -0.1634009328        2.0722378769       -2.1330213627
 H         -0.9925229181        2.7992987379       -4.5172124882
 H          2.8991118319       -2.2875825956       -5.1807103204
 H          0.0006906476        1.2419024422       -6.2360725026
 H         -0.3847769074       -0.9503662844       -0.3600573689
 H         -0.4148597457        0.2210007392        0.9762199062
 H         -0.3326419451        0.7702469067       -0.6913444777
 H          4.6472945622        0.8264821509        4.9012582140
 H          5.0352873283       -0.1557325903        3.4786078188
 H          3.3689759254       -0.1737142815        4.1613828937
  42
    -0.589647 !GC
 C          0.0000000000        0.0000000000        0.0000000000
 C          1.5295623041        0.0000000000        0.0000000000
 C          2.0099990081        1.4464564457        0.0000000000
 C          1.7057778250        2.1443862458        1.3246345536
 N          2.2725594094        1.4227447546        2.4417168216
 C          1.8858378294        0.0298216290        2.5336665081
 C          2.1025640296       -0.7561373838        1.2359474739
 S          3.7973277567        1.8090156948        2.9655800950
 O          4.8547600631        1.0552153008        2.3067172698
 O          3.9011977851        3.2489870656        2.8889242564
 C          3.7464228723        1.3309363860        4.6906028795
 N          2.0220758973       -0.7317124181       -1.1702907581
 C          2.9468626991       -1.7368260918       -1.1556277422
 N          3.2323957015       -2.2303502716       -2.3196136096
 C          2.4518077425       -1.5270780776       -3.2014738754
 C          1.6765828742       -0.5717044073       -2.4939183761
 C          0.7931974015        0.2204718648       -3.2455143642
 C         -0.1679292749        1.2535958737       -3.0618516224
 C         -0.6752104864        1.5535335349       -4.2925211715
 N         -0.0981031963        0.7685170661       -5.2428064464
 C          0.8043654061       -0.0519983223       -4.6451480260
 N          1.5409063991       -0.9458585317       -5.3101798608
 C          2.3607662147       -1.6759583672       -4.5872455362
 H          3.0887812994        1.4739920126       -0.1469589190
 H          1.5150745500        1.9665458450       -0.8210786013
 H          2.1656649742        3.1323775615        1.3367137709
 H          0.6319622042        2.2476485374        1.4924209355
 H          2.4836295010       -0.4260725561        3.3213529942
 H          0.8318927406       -0.0008622561        2.8216706856
 H          1.6397568623       -1.7381865155        1.3456321638
 H          3.1691024475       -0.9360600330        1.0965714857
 H          3.4028192088       -2.1037807861       -0.2610135113
 H         -0.4523163847        1.7576277776       -2.1595234219
 H         -1.4180235918        2.2832845270       -4.5453737586
 H          2.9604426612       -2.4046604237       -5.1108305263
 H         -0.2858386609        0.7853942865       -6.2311623882
 H         -0.4074260859        0.4501326903       -0.8991498074
 H         -0.3849545871       -1.0111743446        0.1014578512
 H         -0.3401938434        0.5803730323        0.8521263684
 H          2.9819968204        1.9270198710        5.1677958497
 H          4.7245861038        1.5437177200        5.1011902373
 H          3.5212298806        0.2760241010        4.7448351646
  42
    -0.587943 !GC
 C          0.0000000000        0.0000000000        0.0000000000
 C          1.5296573068        0.0000000000        0.0000000000
 C          2.0108165008        1.4461698673        0.0000000000
 C          1.7013508174        2.1453618554        1.3228139370
 N          2.2629752129        1.4248479978        2.4432380331
 C          1.8795012985        0.0308236522        2.5336217877
 C          2.1022847442       -0.7551469782        1.2368838891
 S          3.7836651702        1.8149798023        2.9753694348
 O          4.8474166527        1.0696147848        2.3169605033
 O          3.8809124914        3.2557015720        2.9051501530
 C          3.7283765864        1.3287806751        4.6981108725
 N          2.0205864422       -0.7334803512       -1.1697739946
 C          2.9481427142       -1.7360664316       -1.1550128336
 N          3.2366014804       -2.2273417718       -2.3191991204
 C          2.4562946800       -1.5243028653       -3.2013705378
 C          1.6770233213       -0.5724502414       -2.4937102514
 C          0.7899347454        0.2153393775       -3.2455647721
 C         -0.1790948791        1.2410041999       -3.0616951493
 C         -0.6861929181        1.5397091838       -4.2927681890
 N         -0.1008687660        0.7614408800       -5.2435530171
 C          0.8057508999       -0.0543418665       -4.6456873740
 N          1.5497284159       -0.9417682966       -5.3110899861
 C          2.3717911274       -1.6689991834       -4.5876966640
 H          3.0901380328        1.4728959008       -0.1430973034
 H          1.5190627626        1.9659302193       -0.8231985462
 H          2.1612350482        3.1333496385        1.3364556921
 H          0.6268239758        2.2489718723        1.4855794455
 H          2.4757335859       -0.4236045924        3.3233393570
 H          0.8247509073       -0.0027854993        2.8184182276
 H          1.6432740613       -1.7391239430        1.3456281213
 H          3.1698402307       -0.9303714135        1.0995156117
 H          3.4035958726       -2.1032480069       -0.2602339516
 H         -0.4694257230        1.7405806698       -2.1587603712
 H         -1.4340107187        2.2643185777       -4.5456245347
 H          2.9753932394       -2.3949208910       -5.1106463440
 H         -0.2861080255        0.7794895637       -6.2323254530
 H         -0.3785646587        0.5623217048        0.8470494820
 H         -0.3851403042        0.4220153165       -0.9243293337
 H         -0.3693739225       -1.0179277280        0.0787572006
 H          4.7020440767        1.5437094462        5.1105363756
 H          3.4974801015        0.2725598526        4.7411558118
 H          2.9483751218        1.9036244386        5.1786787836
  42
    -0.585931 !GC
 C          0.0000000000        0.0000000000        0.0000000000
 C          1.5301932587        0.0000000000        0.0000000000
 C          1.9774015534        1.4661640866        0.0000000000
 C          2.2747090138        2.0160246756        1.4048753025
 N          3.3588094100        1.3120835145        2.0289768523
 C          3.5093849121       -0.0384016282        1.5665717257
 C          2.1418821622       -0.6894502778        1.3430765414
 S          4.6559691138        2.1179823741        2.6128681027
 O          4.3081114828        3.5174863088        2.5578842622
 O          5.0170544189        1.5771079809        3.9101924816
 C          6.0492434738        1.8520037460        1.5030050701
 N          2.0276005049       -0.7064485393       -1.1825035174
 C          3.0544875625       -1.6068512654       -1.1989739398
 N          3.3220557129       -2.1066764623       -2.3642855150
 C          2.4449028256       -1.4923143074       -3.2202513368
 C          1.6362947563       -0.5783329786       -2.4976744367
 C          0.7515595671        0.2148208268       -3.2485825731
 C         -0.1625210172        1.2928631862       -3.0774628814
 C         -0.6669100618        1.5938835865       -4.3090812151
 N         -0.1295286320        0.7715566613       -5.2500559063
 C          0.7479000232       -0.0712522241       -4.6461928511
 N          1.4706248547       -0.9757522447       -5.3113884489
 C          2.3207582065       -1.6780673949       -4.5963697059
 H          2.8447461552        1.5961801929       -0.6497983489
 H          1.1605716819        2.0448305953       -0.4361842489
 H          2.5905062125        3.0554655942        1.3315648873
 H          1.3976296641        1.9186210682        2.0475541738
 H          4.0897895035       -0.0606818887        0.6324327589
 H          4.0612954985       -0.5696827541        2.3422889016
 H          1.5107027477       -0.4509417038        2.1996797307
 H          2.2422226450       -1.7677514760        1.2786857723
 H          3.6264058601       -1.8631828976       -0.3334680358
 H         -0.4316446801        1.8221651054       -2.1840131282
 H         -1.3791393470        2.3517914713       -4.5673260103
 H          2.9304643724       -2.3955171211       -5.1238955409
 H         -0.3178044192        0.7838546631       -6.2384559038
 H         -0.3856789012        0.4186981866        0.9250949883
 H         -0.3934837787        0.5704724933       -0.8369599328
 H         -0.3563014071       -1.0193272086       -0.0941746268
 H          6.2271162834        0.7889777406        1.4414737394
 H          6.8856363074        2.4006480765        1.9130692571
 H          5.7802556795        2.2512712250        0.5335200329
  42
    -0.585707 !GC
 C          0.0000000000        0.0000000000        0.0000000000
 C          1.5295054033        0.0000000000        0.0000000000
 C          2.0988489645        1.4458113725        0.0000000000
 C          1.8853027165        2.1458002052        1.3465744853
 N          2.2745038760        1.3431818846        2.4879648415
 C          1.7062960480        0.0142991290        2.5249014815
 C          2.0059328352       -0.7550012562        1.2393484293
 S          3.8001914000        1.5895636848        3.0879386696
 O          3.9202323004        0.7497557381        4.2588144181
 O          4.8516236360        1.4487482208        2.0904298450
 C          3.7390038920        3.2998917658        3.6148496595
 N          2.0231269672       -0.6144713280       -1.2354855791
 C          2.9461963825       -0.0743947047       -2.0850868960
 N          3.2325350721       -0.8076109625       -3.1148633624
 C          2.4548276500       -1.9290130470       -2.9757639010
 C          1.6799496039       -1.8271133701       -1.7910960299
 C          0.7986447685       -2.8836250783       -1.5088295247
 C         -0.1606453559       -3.2693838557       -0.5312260688
 C         -0.6662024962       -4.4759454044       -0.9190064783
 N         -0.0896894839       -4.8740486135       -2.0858493314
 C          0.8104953624       -3.9336241539       -2.4735660613
 N          1.5465146174       -4.0314283717       -3.5837496511
 C          2.3646865858       -3.0319956623       -3.8279182091
 H          3.1650176157        1.4196065181       -0.2280119426
 H          1.6354263614        2.0504327151       -0.7812784404
 H          2.4834552826        3.0555694518        1.3657423326
 H          0.8317424313        2.4084855289        1.4723431744
 H          2.1678859312       -0.4902224203        3.3734586392
 H          0.6331049615        0.1053493812        2.7033991519
 H          1.5095023305       -1.7260254468        1.2578577667
 H          3.0842504425       -0.8968755112        1.1839673575
 H          3.4001047355        0.8810619792       -1.9301540447
 H         -0.4440885676       -2.7651464303        0.3712475678
 H         -1.4071435457       -5.0747385935       -0.4283379281
 H          2.9637648071       -3.0950428426       -4.7233822197
 H         -0.2748366682       -5.7266634064       -2.5869595261
 H         -0.4079023889        0.6041828476       -0.8036160191
 H         -0.3622231369       -1.0220838363       -0.0933592900
 H         -0.3622449981        0.4039357188        0.9385176610
 H          4.7155569650        3.5385568345        4.0149476346
 H          2.9744047585        3.3759122156        4.3745360409
 H          3.5095603756        3.9125650777        2.7553691223
  42
    -0.583817 !GC
 C          0.0000000000        0.0000000000        0.0000000000
 C          1.5296164291        0.0000000000        0.0000000000
 C          2.0103918316        1.4464264677        0.0000000000
 C          1.7060819384        2.1445628690        1.3245282941
 N          2.2725058671        1.4231060826        2.4418877304
 C          1.8861409307        0.0299964302        2.5336176900
 C          2.1021741050       -0.7563485187        1.2360055804
 S          3.7970213216        1.8103850163        2.9646361327
 O          4.8533308921        1.0508746186        2.3103856682
 O          3.9036364489        3.2497581462        2.8782304317
 C          3.7454763204        1.3426244981        4.6925623978
 N          2.0223276900       -0.7321353522       -1.1699058522
 C          2.9458546974       -1.7383025290       -1.1544290817
 N          3.2343635388       -2.2299505973       -2.3184418072
 C          2.4580689976       -1.5233582739       -3.2014395968
 C          1.6818761100       -0.5683754011       -2.4943634531
 C          0.8012286963        0.2257329271       -3.2468639794
 C         -0.1611625988        1.2577403438       -3.0637382842
 C         -0.6642163328        1.5609225719       -4.2953554249
 N         -0.0829110621        0.7793340585       -5.2458510175
 C          0.8175660007       -0.0427846688       -4.6472551256
 N          1.5563853869       -0.9350097063       -5.3118869456
 C          2.3726996585       -1.6681002139       -4.5877309618
 H          3.0891966071        1.4733542098       -0.1466930809
 H          1.5158630808        1.9667516262       -0.8212336779
 H          2.1660153272        3.1324692212        1.3366281459
 H          0.6322932778        2.2481844228        1.4919714915
 H          2.4842883172       -0.4258511855        3.3211411264
 H          0.8323066863       -0.0010174205        2.8221295895
 H          1.6386929250       -1.7380343589        1.3459867389
 H          3.1685680106       -0.9368388295        1.0962523702
 H          3.3991949474       -2.1071825563       -0.2592467855
 H         -0.4485905506        1.7596224520       -2.1612093422
 H         -1.4060397656        2.2916092077       -4.5484444405
 H          2.9735973624       -2.3956903497       -5.1114285685
 H         -0.2654566367        0.8002768923       -6.2350545584
 H         -0.3690867418       -1.0237778503        0.0647615692
 H         -0.3850765299        0.5761465996        0.8370995020
 H         -0.3785471285        0.4362347066       -0.9132697112
 H          4.7274080564        1.5373195119        5.0948815938
 H          3.4891893542        0.2928782932        4.7476368239
 H          2.9842589285        1.9410465503        5.1740803241
  42
    -0.583044 !GC
 C          0.0000000000        0.0000000000        0.0000000000
 C          1.5299056009        0.0000000000        0.0000000000
 C          2.1306888787        1.4176052067        0.0000000000
 C          1.8727146740        2.0940414639        1.3461514693
 N          2.2019406324        1.2345663713        2.4615175682
 C          1.6296334635       -0.0940984296        2.4045556165
 C          1.9917511850       -0.8413930784        1.1170274886
 S          3.6884884706        1.4245703687        3.1695066106
 O          3.4818983407        1.3790110311        4.5975733611
 O          4.7005898291        0.5181675841        2.6398469060
 C          4.1089721224        3.1106848981        2.7377931409
 N          2.0215748703       -0.6440376367       -1.2209926049
 C          3.0260189614       -0.1811663167       -2.0224955205
 N          3.2362950597       -0.8833748399       -3.0914254166
 C          2.3372769457       -1.9165972399       -3.0166208854
 C          1.5828016756       -1.8051079126       -1.8179922786
 C          0.7071413310       -2.8600658937       -1.5127745604
 C         -0.1308106132       -3.3078251510       -0.4534378793
 C         -0.6809558253       -4.4919080281       -0.8497680558
 N         -0.2417598574       -4.8207308536       -2.0954057597
 C          0.6216315219       -3.8632856058       -2.5228736845
 N          1.2794820368       -3.9294185297       -3.6832416750
 C          2.1448408843       -2.9677494831       -3.9161879498
 H          3.2087456469        1.3540976412       -0.1188955170
 H          1.7156592875        2.0174184081       -0.8099332316
 H          2.5044039447        2.9798178130        1.4145918120
 H          0.8280183191        2.3943371715        1.4269199759
 H          2.0190072445       -0.6285110401        3.2693003351
 H          0.5464809317        0.0199732573        2.5145018234
 H          1.4813534040       -1.8067188018        1.1228675898
 H          3.0638484312       -1.0548905870        1.0994756487
 H          3.6281159973        0.6682751992       -1.7799246938
 H         -0.2977225628       -2.8640103599        0.5079483623
 H         -1.3591208636       -5.1229220878       -0.3111439370
 H          2.7101741943       -3.0273401682       -4.8336070982
 H         -0.4787058036       -5.6478507973       -2.6171153548
 H         -0.4032416747        0.3176153886       -0.9549248028
 H         -0.3674782641       -0.9977511047        0.2358972788
 H         -0.3631088023        0.6752873188        0.7662889754
 H          3.2367969685        3.5530921202        2.2782798155
 H          4.9341282033        3.0319435621        2.0447680220
 H          4.3961306372        3.6539804663        3.6277382665
  42
    -0.582412 !GC
 C          0.0000000000        0.0000000000        0.0000000000
 C          1.5301261385        0.0000000000        0.0000000000
 C          1.9782063312        1.4659622383        0.0000000000
 C          2.2729241407        2.0160274425        1.4054916568
 N          3.3543511275        1.3098214467        2.0306270761
 C          3.5094357406       -0.0380878261        1.5634285340
 C          2.1441254025       -0.6938376333        1.3398266306
 S          4.6418926787        2.1066990545        2.6450980978
 O          4.3086056429        3.5090173656        2.5738341776
 O          4.9662165978        1.5686763262        3.9534980582
 C          6.0590996128        1.8252378400        1.5700122732
 N          2.0277936166       -0.7059016683       -1.1826798140
 C          3.0560033250       -1.6047717922       -1.2001089936
 N          3.3205439614       -2.1073001845       -2.3650563365
 C          2.4403272119       -1.4957379398       -3.2199328436
 C          1.6326847481       -0.5808206017       -2.4969865950
 C          0.7450585493        0.2101177201       -3.2468750566
 C         -0.1685112128        1.2885780685       -3.0751751592
 C         -0.6774923269        1.5861100382       -4.3059153720
 N         -0.1439319833        0.7607493531       -5.2465215621
 C          0.7359382771       -0.0802205166       -4.6435858164
 N          1.4570024244       -0.9858761386       -5.3088748077
 C          2.3115057921       -1.6843934010       -4.5953952512
 H          2.8469937913        1.5951082071       -0.6481193298
 H          1.1625486210        2.0449042914       -0.4380639614
 H          2.5893462358        3.0552817881        1.3333282833
 H          1.3944038322        1.9186499890        2.0461115574
 H          4.0887832643       -0.0543761240        0.6284196097
 H          4.0645161929       -0.5704966522        2.3361555266
 H          1.5124585194       -0.4572525083        2.1965762551
 H          2.2467324626       -1.7717227796        1.2746755810
 H          3.6305676499       -1.8583950626       -0.3356530651
 H         -0.4337163550        1.8208213189       -2.1822367895
 H         -1.3903554859        2.3436157869       -4.5636922274
 H          2.9170907144       -2.4054002857       -5.1227115305
 H         -0.3359675298        0.7704102597       -6.2341883334
 H         -0.4036989566        0.5931342052       -0.8122510064
 H         -0.3859088477       -1.0141950611       -0.0609896564
 H         -0.3456178058        0.4289340856        0.9362476688
 H          6.9190262868        2.3341115442        1.9820199992
 H          5.8012757997        2.1710616599        0.5805266881
 H          6.2212114142        0.7551063493        1.5761418792
  42
    -0.582184 !GC
 C          0.0000000000        0.0000000000        0.0000000000
 C          1.5295470380        0.0000000000        0.0000000000
 C          1.9755515857        1.4721160127        0.0000000000
 C          1.7036325928        2.2040412117        1.3191523186
 N          2.3199135239        1.5521563623        2.4557442341
 C          1.9518156688        0.1657508858        2.6434837084
 C          2.1035718402       -0.6559362222        1.3648624294
 S          3.8657009534        1.9575696738        2.8973228637
 O          4.8770683990        1.3748755516        2.0256063850
 O          3.9052884931        3.3950160564        3.0404360759
 C          4.0045851960        1.2402088885        4.5322253349
 N          2.0217265111       -0.7053791910       -1.1864333283
 C          3.0191258899       -1.6383761418       -1.2069931630
 N          3.2367205960       -2.1765397410       -2.3658597757
 C          2.3508993675       -1.5600239439       -3.2124527538
 C          1.5952717210       -0.5968699894       -2.4915519917
 C          0.7281721816        0.2220265246       -3.2334446779
 C         -0.1110002369        1.3581044120       -3.0602259915
 C         -0.6498329812        1.6488734093       -4.2795952201
 N         -0.2031281344        0.7654724881       -5.2135830779
 C          0.6546421048       -0.1043436353       -4.6198495119
 N          1.3165478576       -1.0554287918       -5.2839241315
 C          2.1709138931       -1.7664662267       -4.5822485436
 H          3.0380946768        1.5357334572       -0.2489577000
 H          1.4378205888        1.9888080675       -0.7976921784
 H          2.1202095594        3.2086890672        1.2817721555
 H          0.6306722897        2.2605206385        1.5249241684
 H          2.6165916089       -0.2492251151        3.4018749219
 H          0.9266701608        0.1202876914        3.0133299824
 H          1.6554451099       -1.6411102976        1.4937156386
 H          3.1686849501       -0.7678939477        1.1822026650
 H          3.6101256456       -1.8866465630       -0.3514027436
 H         -0.2874739419        1.9378252086       -2.1759459224
 H         -1.3255908790        2.4399537697       -4.5360333261
 H          2.7372821435       -2.5169058667       -5.1122167846
 H         -0.4283309043        0.7628446346       -6.1942414866
 H         -0.3661176234        0.7227874756       -0.7279003713
 H         -0.4037223740       -0.9800311010       -0.2279651927
 H         -0.3628372010        0.3005730171        0.9762444867
 H          3.1740419132        1.6338178263        5.1037086654
 H          4.9544763009        1.5278298871        4.9552792554
 H          3.9163142587        0.1670729346        4.4296139786
  42
    -0.580359 !GC
 C          0.0000000000        0.0000000000        0.0000000000
 C          1.5296122657        0.0000000000        0.0000000000
 C          2.0103699407        1.4462855801        0.0000000000
 C          1.7060885704        2.1440194304        1.3247993290
 N          2.2703722354        1.4214465286        2.4427152400
 C          1.8822980948        0.0287345911        2.5334372027
 C          2.1026436009       -0.7557405628        1.2355198218
 S          3.7959288724        1.8045240106        2.9670120126
 O          4.8502847399        1.0400927933        2.3156942554
 O          3.9079994645        3.2432402740        2.8790334164
 C          3.7394880728        1.3396415800        4.6954557647
 N          2.0221793899       -0.7316935542       -1.1701650057
 C          2.9520268876       -1.7321616458       -1.1560305995
 N          3.2397752891       -2.2237407419       -2.3202779428
 C          2.4548014487       -1.5247705272       -3.2015988773
 C          1.6745556137       -0.5738597840       -2.4934664736
 C          0.7839301348        0.2110691500       -3.2441747705
 C         -0.1861934116        1.2356071411       -3.0595186438
 C         -0.6977047860        1.5306479447       -4.2896218165
 N         -0.1143170729        0.7510225866       -5.2405122619
 C          0.7959775861       -0.0614147027       -4.6437582933
 N          1.5391706914       -0.9491664926       -5.3095193102
 C          2.3651807418       -1.6730846493       -4.5873296752
 H          3.0891519969        1.4733471508       -0.1468635346
 H          1.5156817794        1.9663705632       -0.8212537792
 H          2.1673131852        3.1313946810        1.3375696898
 H          0.6322413553        2.2488531976        1.4914577488
 H          2.4776636477       -0.4277748361        3.3226222673
 H          0.8276408574       -0.0013996636        2.8187733068
 H          1.6436078366       -1.7398430097        1.3432061734
 H          3.1700570280       -0.9311059335        1.0973868294
 H          3.4100150006       -2.0971908161       -0.2616222241
 H         -0.4742715191        1.7371658876       -2.1569515982
 H         -1.4478325819        2.2532004746       -4.5415135693
 H          2.9698061391       -2.3973087588       -5.1114798076
 H         -0.3030898508        0.7661993023       -6.2286378079
 H         -0.3849661569       -1.0146098567        0.0554536956
 H         -0.4013049361        0.5864115874        0.8176276159
 H         -0.3466168953        0.4387785095       -0.9326475662
 H          3.5108038558        0.2839835715        4.7124416214
 H          2.9660796631        1.9318061759        5.1632593463
 H          4.7021277899        1.5384096245        5.1469226511
  42
    -0.577458 !GC
 C          0.0000000000        0.0000000000        0.0000000000
 C          1.5294606145        0.0000000000        0.0000000000
 C          2.1316993107        1.4184787765        0.0000000000
 C          1.8804856269        2.0819127538        1.3542371969
 N          2.2206988633        1.2153068336        2.4560547686
 C          1.6618693957       -0.1160214218        2.4241115323
 C          2.0364609856       -0.8806558098        1.1471743509
 S          3.6048547815        1.4683978467        3.2850121647
 O          4.1505541480        2.7121128488        2.7930082106
 O          3.3313327749        1.3903143761        4.7075939719
 C          4.7713374894        0.1606002530        2.8681791880
 N          2.0214082828       -0.6412595852       -1.2225075189
 C          3.0191888793       -0.1684677981       -2.0277443555
 N          3.2289005760       -0.8658702118       -3.0996958728
 C          2.3400054112       -1.9073071510       -3.0228014852
 C          1.5906560756       -1.8055253676       -1.8194595962
 C          0.7229017518       -2.8670144697       -1.5148409805
 C         -0.1097597495       -3.3218745184       -0.4546002191
 C         -0.6515839459       -4.5098471777       -0.8509512352
 N         -0.2130463611       -4.8336469815       -2.0980114535
 C          0.6422403436       -3.8693663511       -2.5264594229
 N          1.2956152314       -3.9274720791       -3.6895683395
 C          2.1507796635       -2.9573307347       -3.9246788499
 H          3.2090328643        1.3570360197       -0.1279140838
 H          1.7131944228        2.0257215158       -0.8029380459
 H          2.5199692047        2.9631997508        1.4088501064
 H          0.8320321458        2.3660807787        1.4631711244
 H          2.0632804979       -0.6410221984        3.2867827867
 H          0.5768294027       -0.0054528949        2.5104028997
 H          1.5527666636       -1.8593910461        1.1762694114
 H          3.1135123974       -1.0669807657        1.1236959915
 H          3.6179862353        0.6823226399       -1.7829795196
 H         -0.2813397629       -2.8788063950        0.5065701632
 H         -1.3241637051       -5.1462895742       -0.3114878892
 H          2.7108096065       -3.0107671041       -4.8455205649
 H         -0.4419410352       -5.6638858183       -2.6181282211
 H         -0.3744634798        0.6674886913        0.7749700640
 H         -0.3964143204        0.3045163681       -0.9623164849
 H         -0.3634744449       -0.9949535251        0.2303821499
 H          5.7051922955        0.4571665718        3.3251048244
 H          4.8729254613        0.1142902003        1.7931497773
 H          4.4106779383       -0.7681839389        3.2856551279
  42
    -0.577257 !GC
 C          0.0000000000        0.0000000000        0.0000000000
 C          1.5296179431        0.0000000000        0.0000000000
 C          2.0986010829        1.4457256055        0.0000000000
 C          1.8780027409        2.1473705816        1.3445807198
 N          2.2625592388        1.3465563540        2.4888608261
 C          1.6995344470        0.0154409400        2.5248805871
 C          2.0057978622       -0.7535836718        1.2406261412
 S          3.7812323661        1.6019589584        3.1012640312
 O          3.8897981795        0.7737787063        4.2814083018
 O          4.8437443170        1.4544168458        2.1167086818
 C          3.7107262690        3.3168652711        3.6114569179
 N          2.0222840720       -0.6159567530       -1.2350658406
 C          2.9424256077       -0.0755833326       -2.0876425524
 N          3.2113705936       -0.8001275459       -3.1281433857
 C          2.4228685653       -1.9145752141       -2.9946437059
 C          1.6609429357       -1.8182910832       -1.8014835557
 C          0.7783987506       -2.8735024589       -1.5178562314
 C         -0.1597127800       -3.2710305261       -0.5245361130
 C         -0.6809234934       -4.4682377045       -0.9207044038
 N         -0.1337154227       -4.8495369882       -2.1070927130
 C          0.7641339930       -3.9085216612       -2.4986386961
 N          1.4781294058       -3.9943285019       -3.6241036215
 C          2.3025009167       -2.9995085161       -3.8662513656
 H          3.1658049489        1.4196743899       -0.2230585741
 H          1.6384756632        2.0492621920       -0.7840462591
 H          2.4752179241        3.0576244637        1.3656528968
 H          0.8236416559        2.4092895842        1.4644700093
 H          2.1611117632       -0.4865526496        3.3750159467
 H          0.6255692650        0.1020425725        2.7007219940
 H          1.5139555298       -1.7269832082        1.2579500359
 H          3.0849412475       -0.8903552358        1.1879277409
 H          3.4075186202        0.8735395336       -1.9267165515
 H         -0.4178226531       -2.7822729998        0.3939378251
 H         -1.4133792703       -5.0716603740       -0.4230360621
 H          2.8852662565       -3.0542552124       -4.7729901247
 H         -0.3341842362       -5.6930418559       -2.6176490372
 H         -0.3790485954       -1.0086972225       -0.1260218692
 H         -0.3911707634        0.4223642234        0.9238150306
 H         -0.3629770216        0.6069884076       -0.8214538053
 H          3.5010511130        3.8940450295        2.7242666362
 H          4.6666415336        3.5624518374        4.0513089932
 H          2.9204027139        3.4249231896        4.3441984902
  42
    -0.577174 !GC
 C          0.0000000000        0.0000000000        0.0000000000
 C          1.5283561601        0.0000000000        0.0000000000
 C          1.9508995032        1.4776655191        0.0000000000
 C          1.7122463904        2.1324885277        1.3630225049
 N          2.2957762821        1.3676587923        2.4466107998
 C          1.8362104508       -0.0038552261        2.5409621147
 C          2.0468676375       -0.7788547418        1.2405304430
 S          3.8960241812        1.6754234971        2.8295369099
 O          4.2246026359        3.0906986802        2.8166831371
 O          4.3542715937        0.9517302248        4.0031521894
 C          4.5190697693        0.8977433747        1.3558804042
 N          2.0702804335       -0.6667426620       -1.1876540909
 C          2.8462762033       -0.0554608882       -2.1330423282
 N          3.2400151801       -0.8248128366       -3.0977712716
 C          2.7018337316       -2.0518590952       -2.8095114704
 C          1.9513622248       -1.9749194580       -1.6054049824
 C          1.3155198458       -3.1534845846       -1.1782205577
 C          0.4755320369       -3.6176412393       -0.1274161422
 C          0.2287141409       -4.9384227058       -0.3645191821
 N          0.8602651322       -5.3398895129       -1.5015005786
 C          1.5294476515       -4.2808865540       -2.0265350735
 N          2.2432969513       -4.3506075280       -3.1523345898
 C          2.8232133609       -3.2359492869       -3.5389352079
 H          3.0085678371        1.5905215649       -0.2283958859
 H          1.3751144589        2.0022599311       -0.7696892696
 H          2.2056094165        3.1030679862        1.3523363205
 H          0.6482249436        2.2543871295        1.5728108473
 H          2.4262141578       -0.4903209835        3.3159276384
 H          0.7837195814        0.0180288777        2.8314028379
 H          1.5421067521       -1.7459554296        1.2892385263
 H          3.1122313293       -0.9813675326        1.1370869302
 H          3.1093637722        0.9794409472       -2.1000380939
 H          0.0717899223       -3.0852838532        0.7120602095
 H         -0.3662714147       -5.6113735018        0.2195429716
 H          3.4010633521       -3.2730110597       -4.4494084294
 H          0.8430125711       -6.2607992707       -1.9067008844
 H         -0.4060688983        0.6580107155       -0.7621827143
 H         -0.3556290269       -1.0110293872       -0.1807647584
 H         -0.3662757461        0.3032627736        0.9762258996
 H          4.1530546963        1.4828964699        0.5243595041
 H          4.1782833543       -0.1269515003        1.3202121229
 H          5.5977739877        0.9602013671        1.4071158514
  42
    -0.575813 !GC
 C          0.0000000000        0.0000000000        0.0000000000
 C          1.5301186948        0.0000000000        0.0000000000
 C          1.9791865599        1.4657755785        0.0000000000
 C          2.2649760964        2.0192815234        1.4060014096
 N          3.3422569662        1.3142455868        2.0393819756
 C          3.5078391502       -0.0313249239        1.5684296367
 C          2.1486231122       -0.6980955526        1.3406878814
 S          4.6228138526        2.1136296341        2.6655222275
 O          4.2842055841        3.5148308115        2.5987227254
 O          4.9408531943        1.5707057806        3.9733129944
 C          6.0478426652        1.8420175608        1.5981191969
 N          2.0273999250       -0.7070726019       -1.1820664157
 C          3.0536049565       -1.6084267932       -1.1972044691
 N          3.3140041467       -2.1178288292       -2.3600528488
 C          2.4321844250       -1.5097027631       -3.2157864794
 C          1.6289857979       -0.5875338314       -2.4958239933
 C          0.7416002775        0.2021923204       -3.2471995890
 C         -0.1678250180        1.2845153767       -3.0782226588
 C         -0.6807900652        1.5762279383       -4.3086828693
 N         -0.1537806153        0.7433980844       -5.2464331006
 C          0.7254075863       -0.0970521518       -4.6419472445
 N          1.4411143457       -1.0088288137       -5.3045316791
 C          2.2969429571       -1.7049542197       -4.5903443368
 H          2.8520858632        1.5934473578       -0.6429217974
 H          1.1664265885        2.0441968848       -0.4441306580
 H          2.5813029469        3.0585850837        1.3335340820
 H          1.3825722373        1.9230715638        2.0414509400
 H          4.0890793357       -0.0411428802        0.6344347679
 H          4.0655626525       -0.5615209482        2.3408494809
 H          1.5128387013       -0.4657088093        2.1955207657
 H          2.2588515624       -1.7752543042        1.2757959655
 H          3.6305041755       -1.8574624677       -0.3329426930
 H         -0.4271037350        1.8232604618       -2.1874522360
 H         -1.3920792697        2.3344961731       -4.5683745889
 H          2.8996069959       -2.4295949851       -5.1160141676
 H         -0.3504101352        0.7476232572       -6.2332386217
 H         -0.3861489183        0.5840462967       -0.8311953272
 H         -0.3678520294       -1.0218611501       -0.0800754759
 H         -0.3815570681        0.4237340400        0.9184405038
 H          5.7878023779        2.2334506725        0.6247143672
 H          6.2689466986        0.7842579492        1.5703447247
 H          6.8715201301        2.3935535173        2.0284734604
  42
    -0.574709 !GC
 C          0.0000000000        0.0000000000        0.0000000000
 C          1.5296321998        0.0000000000        0.0000000000
 C          2.0985099198        1.4458127810        0.0000000000
 C          1.8772825034        2.1472716793        1.3445862445
 N          2.2626536328        1.3463322737        2.4885052592
 C          1.6998531533        0.0151170017        2.5244464007
 C          2.0068802742       -0.7532679219        1.2400074887
 S          3.7826023943        1.6007900193        3.0995404118
 O          3.8972552747        0.7637410502        4.2728480795
 O          4.8422908136        1.4637753756        2.1103775438
 C          3.7090101676        3.3118838880        3.6227778777
 N          2.0227080719       -0.6155369579       -1.2350667080
 C          2.9500445287       -0.0786748124       -2.0821312683
 N          3.2306073271       -0.8093710266       -3.1152547772
 C          2.4433491232       -1.9247803512       -2.9819947694
 C          1.6690140664       -1.8221610501       -1.7970669567
 C          0.7802342336       -2.8736087335       -1.5189745872
 C         -0.1786109120       -3.2588227980       -0.5406921220
 C         -0.6949251777       -4.4586443639       -0.9351453409
 N         -0.1250681688       -4.8533779247       -2.1064137747
 C          0.7813574023       -3.9174509676       -2.4904526494
 N          1.5145153027       -4.0144313836       -3.6025926542
 C          2.3410209662       -3.0206724674       -3.8419251444
 H          3.1660227645        1.4190738004       -0.2213030336
 H          1.6400054388        2.0490983103       -0.7852525792
 H          2.4739594760        3.0579262445        1.3657703497
 H          0.8228312746        2.4085990114        1.4649911760
 H          2.1613467438       -0.4868506368        3.3745788134
 H          0.6258013215        0.1015293464        2.6998621390
 H          1.5162468246       -1.7273152756        1.2565888482
 H          3.0861690353       -0.8889401415        1.1874342419
 H          3.4112094081        0.8726475916       -1.9229453272
 H         -0.4545625501       -2.7593327319        0.3667525606
 H         -1.4389409402       -5.0549863558       -0.4461915713
 H          2.9386841635       -3.0843590377       -4.7382953902
 H         -0.3182458530       -5.7010263114       -2.6129569977
 H         -0.3684226033        0.3956728325        0.9466277498
 H         -0.4010773831        0.5860507914       -0.8179828373
 H         -0.3634690027       -1.0162710674       -0.1003473115
 H          2.9284495837        3.3880775235        4.3660881202
 H          3.4837034109        3.8857950915        2.7353687699
 H          4.6662376435        3.5953661523        4.0393848697
  42
    -0.573041 !GC
 C          0.0000000000        0.0000000000        0.0000000000
 C          1.5295915745        0.0000000000        0.0000000000
 C          2.0106810783        1.4462332072        0.0000000000
 C          1.7039979011        2.1446326441        1.3238675429
 N          2.2687482585        1.4231195374        2.4421113397
 C          1.8829242671        0.0298358917        2.5334528002
 C          2.1026575412       -0.7557590731        1.2359607750
 S          3.7922903825        1.8101306436        2.9688932083
 O          4.8479019682        1.0385000598        2.3283473182
 O          3.9065148736        3.2478852461        2.8688565534
 C          3.7286376249        1.3609288983        4.7012868124
 N          2.0221921228       -0.7318048998       -1.1700997905
 C          2.9413208559       -1.7420811370       -1.1541697409
 N          3.2220574650       -2.2404485278       -2.3172630319
 C          2.4443505944       -1.5347937090       -3.1997966289
 C          1.6761353055       -0.5728136168       -2.4936587954
 C          0.7996359584        0.2258602026       -3.2464919304
 C         -0.1495132593        1.2704133426       -3.0649768726
 C         -0.6556155001        1.5713308452       -4.2958907891
 N         -0.0885585107        0.7768284815       -5.2443480622
 C          0.8056444955       -0.0516094558       -4.6451907925
 N          1.5322310376       -0.9548550439       -5.3084160357
 C          2.3471408009       -1.6896359281       -4.5846030707
 H          3.0898467972        1.4725917673       -0.1437294904
 H          1.5185199023        1.9663132499       -0.8228501942
 H          2.1640066788        3.1325334056        1.3361362994
 H          0.6299571051        2.2482849222        1.4896590774
 H          2.4801868690       -0.4252827886        3.3220677284
 H          0.8285753665       -0.0019920765        2.8198893091
 H          1.6419160838       -1.7389424917        1.3445047360
 H          3.1698133712       -0.9333231864        1.0979720867
 H          3.3965116658       -2.1091575657       -0.2592466373
 H         -0.4255986003        1.7819455297       -2.1643606690
 H         -1.3899536775        2.3090845468       -4.5503648098
 H          2.9388798977       -2.4256766887       -5.1068573048
 H         -0.2770482365        0.7928846057       -6.2325899823
 H         -0.3684187182       -1.0236615793        0.0695211173
 H         -0.3855826884        0.5796056331        0.8344170072
 H         -0.3792874597        0.4316657738       -0.9151194115
 H          4.6958980833        1.5705628077        5.1389100457
 H          3.5015438717        0.3056840104        4.7517587088
 H          2.9556238395        1.9633899398        5.1555731550
  42
    -0.572848 !GC
 C          0.0000000000        0.0000000000        0.0000000000
 C          1.5302102910        0.0000000000        0.0000000000
 C          1.9784686033        1.4660154398        0.0000000000
 C          2.2613519658        2.0211365760        1.4059313637
 N          3.3381709053        1.3172528190        2.0411145528
 C          3.5066005190       -0.0276080198        1.5694230285
 C          2.1484634478       -0.6962860033        1.3405138450
 S          4.6145831441        2.1167769911        2.6749656263
 O          4.2737455970        3.5175979935        2.6110812292
 O          4.9280451054        1.5704056109        3.9824503833
 C          6.0446129982        1.8510152233        1.6128702379
 N          2.0270183194       -0.7065939009       -1.1825265397
 C          3.0519001376       -1.6094065488       -1.1984633906
 N          3.3139548124       -2.1154137907       -2.3624563653
 C          2.4350149887       -1.5029726982       -3.2180827611
 C          1.6313891979       -0.5825398528       -2.4967242807
 C          0.7457989135        0.2099899623       -3.2472768154
 C         -0.1642067177        1.2915580998       -3.0763950424
 C         -0.6739542395        1.5881588881       -4.3070221152
 N         -0.1443112073        0.7592213368       -5.2467042213
 C          0.7331166540       -0.0837907808       -4.6432271149
 N          1.4502936806       -0.9931628803       -5.3074759140
 C          2.3034654902       -1.6929240018       -4.5936341186
 H          2.8522405626        1.5935784819       -0.6417483386
 H          1.1660720129        2.0436132859       -0.4458687439
 H          2.5771785396        3.0605687797        1.3331958197
 H          1.3779329266        1.9246989385        2.0399420357
 H          4.0887410047       -0.0357071869        0.6359665899
 H          4.0642693281       -0.5574966039        2.3420583949
 H          1.5121898932       -0.4666102519        2.1957597914
 H          2.2607725809       -1.7731199363        1.2736596427
 H          3.6258164432       -1.8630308840       -0.3335390716
 H         -0.4267119072        1.8260292205       -2.1839879200
 H         -1.3849979223        2.3470699333       -4.5654763697
 H          2.9055923093       -2.4172553272       -5.1202457526
 H         -0.3391104032        0.7666611076       -6.2337631569
 H         -0.3859317082        0.5842852553       -0.8310972494
 H         -0.3677556980       -1.0218485691       -0.0806353571
 H         -0.3820462239        0.4232665601        0.9184194527
 H          6.8473331717        2.4107375868        2.0721567638
 H          5.8262890539        2.2339591363        0.6260191191
 H          6.2679721313        0.7939067066        1.6010924363
  42
    -0.570979 !GC
 C          0.0000000000        0.0000000000        0.0000000000
 C          1.5283353427        0.0000000000        0.0000000000
 C          1.9507968941        1.4776267066        0.0000000000
 C          1.7124234072        2.1322734031        1.3632324919
 N          2.2948149085        1.3670768767        2.4472604014
 C          1.8345208405       -0.0041603326        2.5414084969
 C          2.0462594534       -0.7785808563        1.2408822689
 S          3.8948594324        1.6727011611        2.8324516686
 O          4.2280791536        3.0867393287        2.8104451394
 O          4.3473829850        0.9559939021        4.0125904032
 C          4.5195471574        0.8810131796        1.3669764576
 N          2.0704063902       -0.6668103370       -1.1875491101
 C          2.8462581694       -0.0554630524       -2.1329857937
 N          3.2417933089       -0.8252727990       -3.0965900872
 C          2.7049720471       -2.0527290536       -2.8075053505
 C          1.9532402078       -1.9754944713       -1.6042576082
 C          1.3183961281       -3.1544391701       -1.1766169548
 C          0.4781387584       -3.6187208213       -0.1260617750
 C          0.2328587777       -4.9399332448       -0.3623168204
 N          0.8664799658       -5.3418259709       -1.4980174253
 C          1.5348991759       -4.2825232438       -2.0234112351
 N          2.2501515459       -4.3525264946       -3.1482923011
 C          2.8288123283       -3.2374192528       -3.5355334939
 H          3.0083270491        1.5906527948       -0.2290726396
 H          1.3746805807        2.0022015787       -0.7694352742
 H          2.2069571417        3.1022115086        1.3524265691
 H          0.6484846617        2.2554299368        1.5727717112
 H          2.4231248337       -0.4908423783        3.3173402826
 H          0.7816760938        0.0182016416        2.8303184275
 H          1.5421130732       -1.7460080263        1.2890895805
 H          3.1117944735       -0.9802468125        1.1380971702
 H          3.1082410077        0.9797488434       -2.1006717996
 H          0.0727616963       -3.0859144640        0.7122993239
 H         -0.3620971476       -5.6130168669        0.2216099472
 H          3.4075370030       -3.2746058941       -4.4454360214
 H          0.8508219461       -6.2631337825       -1.9024020236
 H         -0.4059766615        0.6586810107       -0.7616424375
 H         -0.3558176364       -1.0108636562       -0.1814194166
 H         -0.3660826365        0.3025504551        0.9764929352
 H          4.1779897165       -0.1433552138        1.4085863296
 H          5.5988075279        0.9150861647        1.4317408482
 H          4.1533180764        1.4025507255        0.4943874664
  42
    -0.567151 !GC
 C          0.0000000000        0.0000000000        0.0000000000
 C          1.5296480967        0.0000000000        0.0000000000
 C          2.0110523112        1.4461109282        0.0000000000
 C          1.7052965099        2.1444464459        1.3241584019
 N          2.2678354917        1.4222722440        2.4431914244
 C          1.8806238104        0.0292163158        2.5333265961
 C          2.1022157993       -0.7557230569        1.2358449576
 S          3.7924237514        1.8060707983        2.9694842128
 O          4.8500633666        1.0548008861        2.3080891119
 O          3.8965923554        3.2462159399        2.8970119090
 C          3.7412680956        1.3221974972        4.6929162210
 N          2.0217333263       -0.7323351391       -1.1699682806
 C          2.9516431945       -1.7327305628       -1.1556243324
 N          3.2343870616       -2.2292248795       -2.3189949010
 C          2.4461896111       -1.5334505592       -3.1999325531
 C          1.6685932986       -0.5799103212       -2.4924432537
 C          0.7763143766        0.2033197514       -3.2429624746
 C         -0.1897839155        1.2317836583       -3.0590556941
 C         -0.7069961896        1.5212620784       -4.2880883235
 N         -0.1303458442        0.7350930130       -5.2376687956
 C          0.7807225540       -0.0766453594       -4.6411100557
 N          1.5192861574       -0.9689102959       -5.3059925782
 C          2.3484442399       -1.6897375164       -4.5842807083
 H          3.0899943046        1.4726646443       -0.1459355816
 H          1.5172457769        1.9662190159       -0.8217863119
 H          2.1666447118        3.1317838315        1.3375519989
 H          0.6312329951        2.2495238844        1.4891854994
 H          2.4755293570       -0.4271423248        3.3229338168
 H          0.8257714397       -0.0016343407        2.8179722462
 H          1.6435730295       -1.7400244645        1.3436175024
 H          3.1697830983       -0.9303528082        1.0981691061
 H          3.4134454532       -2.0940516976       -0.2616607518
 H         -0.4710512781        1.7398064427       -2.1579572397
 H         -1.4562781115        2.2446089920       -4.5402047225
 H          2.9487195379       -2.4183515255       -5.1073347662
 H         -0.3235024460        0.7459904586       -6.2249631565
 H         -0.3789745839        0.5604373573        0.8480723930
 H         -0.3853015193        0.4234953261       -0.9235628248
 H         -0.3690135478       -1.0181883865        0.0768933234
 H          3.5200638158        0.2647843896        4.6987829450
 H          2.9638564978        1.9037939474        5.1672106358
 H          4.7024002554        1.5232038959        5.1465041483
  42
    -0.565109 !GC
 C          0.0000000000        0.0000000000        0.0000000000
 C          1.5283164179        0.0000000000        0.0000000000
 C          2.0394498246        1.4530395407        0.0000000000
 C          1.8266930383        2.1506484001        1.3431689615
 N          2.2909233275        1.3504047531        2.4590233767
 C          1.7114707407        0.0247784576        2.5402764410
 C          1.9499461332       -0.7898730540        1.2662706980
 S          3.8912094191        1.5181996454        2.9205803879
 O          4.3459226838        2.8980812413        2.9190978894
 O          4.2226988164        0.7662413434        4.1188629710
 C          4.5150575156        0.6729856879        1.4848006491
 N          2.0706924846       -0.6453221184       -1.1992289510
 C          2.8429293184       -1.7736792394       -1.1898636890
 N          3.2370441758       -2.1758994921       -2.3562281945
 C          2.7030127908       -1.2723014931       -3.2375562710
 C          1.9541934175       -0.2955566795       -2.5274461207
 C          1.3217744656        0.6990143043       -3.2934815434
 C          0.4832364561        1.8361413611       -3.1226200951
 C          0.2392221728        2.3452155673       -4.3647846176
 N          0.8718979180        1.6008050615       -5.3125653702
 C          1.5380392987        0.5881259125       -4.6996924482
 N          2.2510608966       -0.3257171710       -5.3617104330
 C          2.8270134910       -1.2520069791       -4.6279629324
 H          3.1049187463        1.4747950007       -0.2260359611
 H          1.5337858213        2.0020036340       -0.7971009882
 H          2.4133341833        3.0678093691        1.3369061949
 H          0.7733493111        2.3815055057        1.5156502915
 H          2.2068932134       -0.4941479891        3.3592873890
 H          0.6475139800        0.1363192461        2.7560473439
 H          1.3755162849       -1.7212540868        1.3081025352
 H          3.0077990431       -1.0423958916        1.2414772601
 H          3.1029223762       -2.3023287829       -0.2985639381
 H          0.0780669107        2.2589480253       -2.2235701054
 H         -0.3540069334        3.2000975839       -4.6201111070
 H          3.4030058796       -2.0022169588       -5.1472479164
 H          0.8563101875        1.7529575650       -6.3071162469
 H         -0.3552861166        0.3928993342       -0.9491133003
 H         -0.4066440489       -0.9964774392        0.1434137882
 H         -0.3662218535        0.6590528172        0.7815165782
 H          5.5941602321        0.7293800468        1.5348448996
 H          4.1544351141        1.2256349030        0.6289663691
 H          4.1663156463       -0.3497022911        1.4917294303
  42
    -0.564107 !GC
 C          0.0000000000        0.0000000000        0.0000000000
 C          1.5298271258        0.0000000000        0.0000000000
 C          2.0989917591        1.4457482636        0.0000000000
 C          1.8803977103        2.1475557794        1.3448132888
 N          2.2638333566        1.3458705702        2.4888116977
 C          1.6982836859        0.0158675146        2.5244813116
 C          2.0061152487       -0.7534631903        1.2407564055
 S          3.7835927398        1.5972260857        3.1014143726
 O          3.8817351574        0.7836545383        4.2925278353
 O          4.8481755940        1.4286566831        2.1222183323
 C          3.7241315743        3.3193286086        3.5890974080
 N          2.0217112215       -0.6149590728       -1.2358484135
 C          2.9489375603       -0.0786794560       -2.0834070565
 N          3.2377307680       -0.8151501599       -3.1100850094
 C          2.4573020664       -1.9345371110       -2.9712775159
 C          1.6784781199       -1.8283999859       -1.7896058951
 C          0.7927985318       -2.8817726747       -1.5090887811
 C         -0.1734671346       -3.2621111701       -0.5361572374
 C         -0.6795389397       -4.4687287877       -0.9233760286
 N         -0.0959896955       -4.8722166135       -2.0848379176
 C          0.8086480769       -3.9351737206       -2.4699968147
 N          1.5513184102       -4.0386039776       -3.5751460723
 C          2.3718400431       -3.0410717045       -3.8189396571
 H          3.1660043920        1.4185848664       -0.2235466191
 H          1.6390497599        2.0496242556       -0.7839044689
 H          2.4788386051        3.0570407123        1.3655032737
 H          0.8264928455        2.4111362737        1.4654269746
 H          2.1572315350       -0.4862443451        3.3759583603
 H          0.6240877666        0.1046567082        2.6978623108
 H          1.5149671370       -1.7271716016        1.2578910459
 H          3.0853319136       -0.8900401872        1.1891647417
 H          3.4038173078        0.8764541518       -1.9294955331
 H         -0.4618033451       -2.7539589935        0.3626901002
 H         -1.4247287397       -5.0644494581       -0.4354241951
 H          2.9763800630       -3.1090913288       -4.7104302197
 H         -0.2802109303       -5.7255953046       -2.5848604559
 H         -0.3851884425        0.4125805806        0.9285003893
 H         -0.3694290830        0.5901872412       -0.8387389618
 H         -0.3790714604       -1.0063009243       -0.1056804124
 H          2.9471751232        3.3901881079        4.3366985524
 H          3.5002100133        3.9191852201        2.7186674495
 H          4.6917434522        3.5791676932        3.9966907487
  42
    -0.563786 !GC
 C          0.0000000000        0.0000000000        0.0000000000
 C          1.5296146628        0.0000000000        0.0000000000
 C          2.0097255235        1.4466046458        0.0000000000
 C          1.7061363571        2.1448203306        1.3246722605
 N          2.2719154600        1.4229692463        2.4420707598
 C          1.8851044569        0.0300392502        2.5336328269
 C          2.1025141014       -0.7558255023        1.2360121534
 S          3.7956877227        1.8098391558        2.9672783198
 O          4.8515116107        1.0422312594        2.3220057944
 O          3.9075295816        3.2482619807        2.8714772014
 C          3.7364231405        1.3539678985        4.6981282602
 N          2.0221629216       -0.7317329598       -1.1702416800
 C          2.9456230008       -1.7379800429       -1.1552157877
 N          3.2337482942       -2.2294036415       -2.3194199736
 C          2.4569029438       -1.5228966010       -3.2020156042
 C          1.6809240414       -0.5680478668       -2.4945085353
 C          0.7998292989        0.2260229907       -3.2465888946
 C         -0.1627395008        1.2578112221       -3.0630301897
 C         -0.6658797126        1.5614514255       -4.2944933021
 N         -0.0855370213        0.7793395559       -5.2451444246
 C          0.8158259826       -0.0421690500       -4.6470616835
 N          1.5539463844       -0.9347569233       -5.3119986081
 C          2.3705558839       -1.6678921688       -4.5882433318
 H          3.0884203329        1.4737641134       -0.1474029842
 H          1.5144832687        1.9667329838       -0.8208941374
 H          2.1669289432        3.1323257534        1.3365348914
 H          0.6324198891        2.2494088548        1.4921943493
 H          2.4823851355       -0.4256792307        3.3218693017
 H          0.8309456823       -0.0007667098        2.8208619400
 H          1.6399433542       -1.7379587233        1.3455382299
 H          3.1691396054       -0.9354125228        1.0967453882
 H          3.3992087457       -2.1070229169       -0.2602472940
 H         -0.4506781921        1.7587570177       -2.1601780870
 H         -1.4081283976        2.2918348275       -4.5472105171
 H          2.9716261577       -2.3950787800       -5.1123178002
 H         -0.2689274458        0.7998819921       -6.2342401258
 H         -0.3912996053        0.5634255955        0.8451371223
 H         -0.3784170056        0.4233772983       -0.9245238159
 H         -0.3630380751       -1.0179770364        0.0840335454
 H          4.7150458272        1.5563657418        5.1046422620
 H          3.4849060751        0.3033966527        4.7594353405
 H          2.9695840707        1.9524742731        5.1706305281
  42
    -0.563038 !GC
 C          0.0000000000        0.0000000000        0.0000000000
 C          1.5282866428        0.0000000000        0.0000000000
 C          1.9505877264        1.4777125969        0.0000000000
 C          1.7144199736        2.1322806347        1.3635052368
 N          2.2972792948        1.3666603753        2.4471279982
 C          1.8352336270       -0.0042597075        2.5409816154
 C          2.0471566189       -0.7788215575        1.2406646371
 S          3.9006035954        1.6662176376        2.8253021858
 O          4.2400101400        3.0785656627        2.7980413088
 O          4.3543046414        0.9510793855        4.0057132226
 C          4.5167293253        0.8669437515        1.3602679986
 N          2.0703287248       -0.6665222317       -1.1877536400
 C          2.8436875143       -0.0537709042       -2.1343461996
 N          3.2394720605       -0.8229551034       -3.0983434734
 C          2.7061430168       -2.0515454137       -2.8079585779
 C          1.9553466289       -1.9756020319       -1.6039643198
 C          1.3228860995       -3.1557483841       -1.1759099681
 C          0.4836557473       -3.6219069202       -0.1253068963
 C          0.2420007239       -4.9439084592       -0.3609210109
 N          0.8764527387       -5.3445115697       -1.4966477361
 C          1.5418727718       -4.2835876036       -2.0224724824
 N          2.2564671586       -4.3524027962       -3.1478055743
 C          2.8320657075       -3.2361123853       -3.5358847269
 H          3.0077497192        1.5911313809       -0.2303365303
 H          1.3734323033        2.0026427131       -0.7684509800
 H          2.2096629654        3.1018629457        1.3524039021
 H          0.6509088114        2.2558933709        1.5745481172
 H          2.4231153542       -0.4915692602        3.3170469262
 H          0.7823346760        0.0195343484        2.8296462736
 H          1.5436101731       -1.7466203825        1.2888198548
 H          3.1128594198       -0.9798074083        1.1374853392
 H          3.1032861554        0.9820507771       -2.1027651198
 H          0.0762142429       -3.0895606380        0.7124313641
 H         -0.3508663545       -5.6183851564        0.2234942042
 H          3.4075530281       -3.2712687388       -4.4479441355
 H          0.8634786234       -6.2660554437       -1.9006530162
 H         -0.3886251360        0.6993197772       -0.7383776947
 H         -0.4063584924       -0.9948082718       -0.1564562510
 H         -0.3331484094        0.3389054563        0.9746750165
 H          4.1370062134        1.4341489988        0.5225384662
 H          4.1840999241       -0.1610016470        1.3467666510
 H          5.5951729733        0.9390923684        1.3988365761
  42
    -0.561974 !GC
 C          0.0000000000        0.0000000000        0.0000000000
 C          1.5282879044        0.0000000000        0.0000000000
 C          1.9498855452        1.4779207930        0.0000000000
 C          1.7164906317        2.1323780297        1.3641338966
 N          2.3011167708        1.3661698422        2.4460069654
 C          1.8381786488       -0.0041041565        2.5412417202
 C          2.0476510684       -0.7791219745        1.2407857141
 S          3.9036574558        1.6665110579        2.8254393643
 O          4.2374274323        3.0806742287        2.8194884130
 O          4.3623026219        0.9349075546        3.9937719833
 C          4.5200130269        0.8941844599        1.3461097671
 N          2.0709804845       -0.6658151248       -1.1878422894
 C          2.8423052494       -0.0517711642       -2.1352764846
 N          3.2396321319       -0.8204643685       -3.0989942837
 C          2.7084028970       -2.0499057298       -2.8082982325
 C          1.9585441566       -1.9751738637       -1.6036259821
 C          1.3280064872       -3.1560979067       -1.1751959574
 C          0.4888177223       -3.6226899281       -0.1248666343
 C          0.2480209640       -4.9447788237       -0.3606244997
 N          0.8840011270       -5.3452705055       -1.4955296301
 C          1.5486244764       -4.2838152288       -2.0213956146
 N          2.2633257737       -4.3517491567       -3.1467667363
 C          2.8361242025       -3.2343501983       -3.5358840235
 H          3.0062500762        1.5917470103       -0.2330601338
 H          1.3704727424        2.0028276334       -0.7666725823
 H          2.2122077007        3.1017110458        1.3524843944
 H          0.6534283636        2.2567141430        1.5771426300
 H          2.4271081882       -0.4919740725        3.3161343252
 H          0.7857712737        0.0203343874        2.8315905802
 H          1.5433243440       -1.7464668072        1.2897250796
 H          3.1131038766       -0.9809132742        1.1364170932
 H          3.0990600544        0.9847452663       -2.1045856181
 H          0.0811052667       -3.0908083361        0.7130775989
 H         -0.3445278468       -5.6197806793        0.2235911058
 H          3.4135173765       -3.2694965784       -4.4466425285
 H          0.8710010360       -6.2666481901       -1.8999856214
 H         -0.3558153320        0.6810242756       -0.7687066824
 H         -0.3884442353       -0.9960998768       -0.2043299002
 H         -0.3845308896        0.3519670024        0.9492448307
 H          4.1668933138       -0.1267848497        1.3697220359
 H          5.5996121231        0.9152500534        1.4103335300
 H          4.1591754055        1.4347403294        0.4828833774
  42
    -0.561309 !GC
 C          0.0000000000        0.0000000000        0.0000000000
 C          1.5296160506        0.0000000000        0.0000000000
 C          2.0984944383        1.4458266187        0.0000000000
 C          1.8781630388        2.1471137634        1.3448220772
 N          2.2646459395        1.3462579295        2.4884139303
 C          1.7016259084        0.0151316449        2.5246677224
 C          2.0067420009       -0.7535274578        1.2398978990
 S          3.7855054745        1.6002136211        3.0972020679
 O          3.8970832671        0.7705793734        4.2760513301
 O          4.8451577106        1.4529460105        2.1094108351
 C          3.7178335310        3.3149090464        3.6091046343
 N          2.0229919106       -0.6151439382       -1.2351912149
 C          2.9526495486       -0.0793911050       -2.0803473564
 N          3.2361430388       -0.8113792454       -3.1117615145
 C          2.4487402754       -1.9267858860       -2.9791059268
 C          1.6708098471       -1.8225008238       -1.7966472977
 C          0.7793772637       -2.8723177305       -1.5209626375
 C         -0.1852546985       -3.2541613308       -0.5470704572
 C         -0.7011162395       -4.4540790914       -0.9417822860
 N         -0.1253454856       -4.8521544120       -2.1090094772
 C          0.7842112774       -3.9181367608       -2.4902773177
 N          1.5227362644       -4.0180468120       -3.5985982123
 C          2.3506943829       -3.0251401559       -3.8363788819
 H          3.1658611095        1.4189949553       -0.2219263635
 H          1.6395159867        2.0492942998       -0.7848271937
 H          2.4744538815        3.0580356019        1.3653379108
 H          0.8237182128        2.4080875824        1.4661061741
 H          2.1638393917       -0.4869150376        3.3743787538
 H          0.6277670218        0.1018390575        2.7011691681
 H          1.5143299514       -1.7266592630        1.2570069533
 H          3.0857483988       -0.8911743339        1.1864751192
 H          3.4131163264        0.8722817020       -1.9211824507
 H         -0.4657979779       -2.7520107251        0.3574649649
 H         -1.4487286314       -5.0483201977       -0.4557550143
 H          2.9516043735       -3.0906282281       -4.7304349916
 H         -0.3170845558       -5.7005659758       -2.6147949897
 H         -0.3913668925       -1.0078628479       -0.1256757209
 H         -0.3852278970        0.4201503220        0.9251866878
 H         -0.3564782924        0.6038787160       -0.8242828138
 H          2.9421250151        3.3972788847        4.3568632826
 H          3.4876685510        3.8831228860        2.7193065056
 H          4.6779199249        3.6001278366        4.0178579539
