  42

 C        -14.6795230920       29.4239396470       -2.9526877810
 C        -14.3863409310       29.8728983420       -1.5170426950
 C        -13.2874517700       30.9671670250       -1.5031943570
 C        -13.7943604740       32.2803792820       -2.1241855570
 N        -15.0331402720       32.7418922580       -1.4325373360
 C        -16.1261389930       31.7271363240       -1.3710023380
 C        -15.6067554690       30.4252591400       -0.7440425950
 S        -15.5047515210       34.3655729320       -1.6827733340
 O        -16.5680592220       34.6321357030       -0.7031169220
 O        -14.2880758220       35.1743198510       -1.5248092950
 C        -16.1121109530       34.4830520840       -3.2720336080
 N        -13.8915538040       28.6510883690       -0.7693240920
 C        -12.5942004840       28.4813901680       -0.2157890940
 N        -12.4134627550       27.2539538690        0.3031332900
 C        -13.6168744110       26.5675323330        0.0874439170
 C        -14.5566419260       27.4268880940       -0.5873994610
 C        -15.8334118940       26.8969486610       -0.8943209980
 C        -17.0505369770       27.3122662930       -1.5156247780
 C        -17.9359818000       26.2390693410       -1.4869874230
 N        -17.3261383800       25.1429886720       -0.8637960280
 C        -16.0351285480       25.5230493240       -0.4904792770
 N        -15.1291518930       24.6921588750        0.1579124980
 C        -13.9401148710       25.2229543190        0.4395432090
 H        -12.9865643010       31.1848761500       -0.4471218960
 H        -12.3932046940       30.6326226340       -2.0836053340
 H        -13.0030003510       33.0675529010       -1.9744335700
 H        -13.9694968840       32.1392648520       -3.2236597820
 H        -16.9412076560       32.1400600370       -0.7131333080
 H        -16.5416703130       31.5147942630       -2.3918356000
 H        -16.4367252500       29.6841524730       -0.7111838990
 H        -15.2946708700       30.6352466270        0.3121828800
 H        -11.8380311960       29.2620505050       -0.2120366230
 H        -17.2732669760       28.2725886360       -1.9417397910
 H        -18.9484370800       26.1827436810       -1.8649179140
 H        -13.1991429030       24.5955900920        0.9559116320
 H        -17.7421550670       24.2318994130       -0.7090963670
 H        -15.4446199940       28.6184220020       -2.9878755300
 H        -15.0521116510       30.2809085420       -3.5591831670
 H        -13.7471914040       29.0368401720       -3.4283199730
 H        -16.4300846340       35.5348775900       -3.5297705960
 H        -17.0234643960       33.8482309230       -3.4484345420
 H        -15.3646481200       34.1989376000       -4.0620325650
