  42
        -67.91566510
 C         -0.1902521709       -3.4183900099        0.0004638181
 C          0.0003346011       -1.9006426507        0.0002261902
 C         -0.6359271131       -1.2919107569       -1.2618635696
 C         -2.1638209340       -1.3665673286       -1.2212020512
 N         -2.7130093856       -0.8183778701        0.0002879347
 C         -2.1635562926       -1.3660043738        1.2219078761
 C         -0.6356380259       -1.2915053688        1.2622738300
 S         -3.1757669448        0.7732994773       -0.0001529814
 O         -2.7524252054        1.4155397822        1.2301212801
 O         -2.7514009108        1.4152629938       -1.2302281421
 C         -4.9627894716        0.6574084969       -0.0009311654
 N          1.4312955246       -1.5848221528       -0.0000640493
 C          2.4516996054       -2.4928007063       -0.0003343794
 N          3.6401396879       -1.9755239734       -0.0003663726
 C          3.4339867686       -0.6194168167       -0.0002665796
 C          2.0406026414       -0.3496423548       -0.0000705947
 C          1.6484016906        0.9990497382        0.0000171396
 C          0.4646928956        1.7887810607        0.0001101504
 C          0.8544310066        3.0964290751        0.0002040352
 N          2.2127505334        3.1819973707        0.0002450656
 C          2.7313848373        1.9266377087       -0.0000018179
 N          4.0422740444        1.6710314937       -0.0000394105
 C          4.3866498715        0.4024383850       -0.0001895189
 H         -0.3434419573       -0.2458802922       -1.3511442734
 H         -0.2720021491       -1.8185227587       -2.1452798532
 H         -2.5745465513       -0.7811912860       -2.0430143691
 H         -2.5081116634       -2.3993758186       -1.3108607087
 H         -2.5741024935       -0.7802011918        2.0435030630
 H         -2.5079280146       -2.3987348459        1.3121360183
 H         -0.2715728985       -1.8179323282        2.1457460819
 H         -0.3430340024       -0.2454879540        1.3512179637
 H          2.2978404923       -3.5507470248        0.0000413214
 H         -0.5587958777        1.4700048135        0.0002166193
 H          0.2388239232        3.9735091212        0.0004687719
 H          5.4427656193        0.1802963316       -0.0002922983
 H          2.7614450656        4.0253581798        0.0004316539
 H          0.2524556148       -3.8623643692       -0.8870920673
 H          0.2530933156       -3.8620653119        0.8878487425
 H         -1.2489581841       -3.6510811030        0.0008701043
 H         -5.3582201288        1.6641660300       -0.0008528938
 H         -5.2515481236        0.1246279620        0.8936656475
 H         -5.2508367695        0.1250531203       -0.8960159483
  42
        -67.91474950
 C          0.2222226275       -1.3003413420        1.9921218319
 C         -0.1244049669       -0.9280341650        0.5469020505
 C         -1.0151118464       -2.0089012404       -0.0846997275
 C         -2.4034663996       -2.0210137846        0.5569124134
 N         -3.0619439730       -0.7373939200        0.4268046816
 C         -2.2861920538        0.3574486739        0.9778421366
 C         -0.8663347826        0.4143999947        0.4129852919
 S         -3.7580068944       -0.4174777775       -1.0591400693
 O         -3.0009646309        0.5640922110       -1.8195349596
 O         -3.9895727512       -1.6766839793       -1.7376051617
 C         -5.3344290722        0.2916410185       -0.5921000500
 N          1.1325689192       -0.8145933404       -0.1957496856
 C          1.5233962015       -1.5533128811       -1.2728855244
 N          2.6733404947       -1.2181727506       -1.7718039253
 C          3.1069557394       -0.1760697655       -0.9893615053
 C          2.1455134734        0.0920407786        0.0166345289
 C          2.4308239687        1.1194150807        0.9292249478
 C          1.8652540760        1.7481638230        2.0732801911
 C          2.7374947385        2.7195852206        2.4702735026
 N          3.8199819193        2.7417627410        1.6459549500
 C          3.6719257771        1.7800193185        0.6983502813
 N          4.5736019396        1.5365804902       -0.2576564727
 C          4.2902400431        0.5611026090       -1.0919511894
 H         -1.1580252439       -1.7925109156       -1.1474209414
 H         -0.5598529512       -2.9940087104        0.0197940183
 H         -3.0331925657       -2.7502097448        0.0479607383
 H         -2.3519641092       -2.2678333634        1.6181825000
 H         -2.8030037134        1.2826771547        0.7268648271
 H         -2.2748934681        0.2382297555        2.0630942948
 H         -0.3137798070        1.2131345935        0.9012194227
 H         -0.9378590529        0.6562898625       -0.6512564365
 H          0.9385655036       -2.3529505937       -1.6777159275
 H          0.9399594170        1.5232166273        2.5629836087
 H          2.6559463971        3.4003376973        3.2938012791
 H          5.0129522055        0.3499181108       -1.8654836990
 H          4.6125225159        3.3578663398        1.7130205939
 H          1.0239971857       -0.6711785888        2.3635609580
 H         -0.6376053067       -1.1891650447        2.6424680201
 H          0.5597550570       -2.3334071669        2.0312966826
 H         -5.1467898091        1.1859791407       -0.0155939809
 H         -5.8529678186       -0.4584511411       -0.0125368092
 H         -5.8695310040        0.5234916661       -1.5034683712
  42
        -67.91469227
 C          0.2338591890       -1.2951062494        1.9772187727
 C         -0.1243307984       -0.9147690899        0.5372362542
 C         -1.0410371004       -1.9789751924       -0.0842542882
 C         -2.4350879677       -1.9581463468        0.5492505158
 N         -3.0578918203       -0.6509824327        0.4724372759
 C         -2.2407867582        0.4054716410        1.0336630960
 C         -0.8465914427        0.4395755019        0.4109560740
 S         -3.8036055538       -0.3193082590       -0.9851982853
 O         -3.8669671507        1.1182268529       -1.1531941299
 O         -3.1950531636       -1.0453949214       -2.0887700628
 C         -5.4577652823       -0.9486169128       -0.7123320723
 N          1.1267110116       -0.8239102231       -0.2184063083
 C          1.4977725714       -1.5777428693       -1.2922641567
 N          2.6510595187       -1.2676469285       -1.7995053426
 C          3.1088721308       -0.2291295499       -1.0262947047
 C          2.1582843478        0.0639752720       -0.0166903212
 C          2.4688857280        1.0913996072        0.8877371291
 C          1.9217772990        1.7392926322        2.0302110230
 C          2.8159153639        2.6947885625        2.4170366495
 N          3.8951848277        2.6885496481        1.5883328657
 C          3.7223004255        1.7247107731        0.6470122372
 N          4.6136109741        1.4578409159       -0.3123698532
 C          4.3057599050        0.4839258068       -1.1398414613
 H         -1.1723541080       -1.7720257855       -1.1486448579
 H         -0.6107347002       -2.9736140653        0.0353028963
 H         -3.0753163912       -2.6554023340        0.0104818450
 H         -2.3960508487       -2.2475825221        1.6007324246
 H         -2.7561378656        1.3435970090        0.8297951098
 H         -2.1911807198        0.2508866456        2.1131012915
 H         -0.2621668309        1.2374878321        0.8616647865
 H         -0.9590425226        0.6663826845       -0.6546457007
 H          0.8950871785       -2.3679863056       -1.6889247705
 H          0.9930042749        1.5393507644        2.5244795642
 H          2.7519181970        3.3824724763        3.2363625512
 H          5.0194493412        0.2549153955       -1.9166545404
 H          4.7005206401        3.2886135553        1.6477571619
 H         -0.6292331155       -1.2227348391        2.6285405845
 H          0.6038258734       -2.3176247980        1.9991130652
 H          1.0152573850       -0.6473608104        2.3595763251
 H         -5.3873194493       -2.0045174825       -0.4942189065
 H         -6.0249970848       -0.7772176639       -1.6175611290
 H         -5.8682215322       -0.3938483581        0.1190545691
  42
        -67.91446067
 C          0.2321491606       -1.3116593115       -1.9772824894
 C         -0.1216230056       -0.9259092297       -0.5374784090
 C         -0.8524215936        0.4242950243       -0.4186302454
 C         -2.2594616169        0.3750725013       -1.0121234451
 N         -3.0533442039       -0.6927552635       -0.4382613703
 C         -2.4188357200       -1.9913702587       -0.5400375306
 C         -1.0258519685       -1.9953494793        0.0937640033
 S         -3.7842403429       -0.3557175906        1.0274888034
 O         -3.5230530784       -1.4189121744        1.9809043493
 O         -3.4284508324        0.9795739654        1.4699795205
 C         -5.5203515046       -0.3810537994        0.5906153883
 N          1.1318586251       -0.8192562871        0.2121597720
 C          1.5114884067       -1.5586201331        1.2929972017
 N          2.6624015893       -1.2324574750        1.7956414954
 C          3.1091675562       -0.1972620652        1.0114760320
 C          2.1545651015        0.0765967473        0.0003668076
 C          2.4540856873        1.0976718075       -0.9148842581
 C          1.8998353557        1.7279589283       -2.0637106331
 C          2.7838532426        2.6886053088       -2.4608772271
 N          3.8635292839        2.7020745823       -1.6327533166
 C          3.7011648242        1.7461129308       -0.6816246598
 N          4.5960338889        1.4977158204        0.2794182162
 C          4.2990442796        0.5287816713        1.1165843750
 H         -0.9468972958        0.6691958131        0.6441074018
 H         -0.2823816418        1.2185134084       -0.8937435015
 H         -2.7734110280        1.3102378557       -0.7941383330
 H         -2.2306270050        0.2237224640       -2.0927586830
 H         -3.0525991289       -2.7010220862       -0.0097473847
 H         -2.3772964436       -2.2634463472       -1.5957015944
 H         -0.5842927006       -2.9861500343       -0.0159409833
 H         -1.1626882115       -1.7824960485        1.1570734848
 H          0.9171951665       -2.3512103344        1.6978254388
 H          0.9732969809        1.5126497194       -2.5555690763
 H          2.7125074642        3.3670114072       -3.2872679563
 H          5.0157919601        0.3144998887        1.8947725936
 H          4.6627011544        3.3095685842       -1.6988742711
 H          0.5875437917       -2.3392335369       -2.0004742413
 H         -0.6293359950       -1.2257677590       -2.6291372954
 H          1.0229494047       -0.6744681470       -2.3581691800
 H         -5.6770452593        0.3983335325       -0.1412241701
 H         -6.0920882353       -0.1950707220        1.4899505480
 H         -5.7351157410       -1.3595650136        0.1855928105
  42
        -67.91433132
 C         -0.2139895388       -3.3351683207       -0.0003840808
 C          0.0914225171       -1.8378174233       -0.0002279611
 C         -0.4741553686       -1.1875877813       -1.2804959400
 C         -1.9841304268       -0.9702547407       -1.2073007901
 N         -2.2946444788       -0.2397275411       -0.0002532879
 C         -1.9841727470       -0.9702663126        1.2068007200
 C         -0.4742112787       -1.1876656184        1.2800485781
 S         -3.6057255362        0.7459358621       -0.0000208840
 O         -3.5666102652        1.5116665630        1.2283900742
 O         -3.5683628833        1.5099769820       -1.2295334974
 C         -5.0846421064       -0.2778622691        0.0018329708
 N          1.5372723077       -1.6180530815       -0.0000743035
 C          2.5203425812       -2.5633253611        0.0001854644
 N          3.7275858968       -2.0880653997        0.0004698589
 C          3.5712037338       -0.7237826543        0.0003430541
 C          2.1896062701       -0.4075685835        0.0000850715
 C          1.8297089902        0.9489397719        0.0000235227
 C          0.6616144019        1.7635824330       -0.0002280183
 C          1.0845233437        3.0611193960       -0.0002790543
 N          2.4456179018        3.1142019720       -0.0000545876
 C          2.9352232879        1.8468984567        0.0000995854
 N          4.2385647977        1.5519553298        0.0002555873
 C          4.5499733677        0.2743088540        0.0004245739
 H          0.0058740394       -0.2235546405       -1.4356874156
 H         -0.2412451498       -1.8209630529       -2.1371738443
 H         -2.3189207440       -0.3592149541       -2.0454247840
 H         -2.5131407216       -1.9317025840       -1.2240135706
 H         -2.3189712985       -0.3592518355        2.0449564031
 H         -2.5131871708       -1.9317012999        1.2233783577
 H         -0.2412848159       -1.8210902107        2.1366689593
 H          0.0058065473       -0.2236536785        1.4353432205
 H          2.3221728412       -3.6145329013        0.0001536781
 H         -0.3669187804        1.4572558333       -0.0004872915
 H          0.4938887725        3.9555111874       -0.0005475416
 H          5.6006941740        0.0271259834        0.0006073654
 H          3.0128081583        3.9450755254       -0.0000726560
 H          0.1938031290       -3.8143991025       -0.8864329772
 H          0.1933793807       -3.8144035861        0.8858465652
 H         -1.2890079179       -3.4807110833       -0.0006242028
 H         -5.9309220630        0.3945877410        0.0014754312
 H         -5.0697302776       -0.8775001956        0.9008654813
 H         -5.0705743685       -0.8796032292       -0.8958415434
  42
        -67.91376677
 C          0.2111003555       -0.6936551095       -2.4215471783
 C         -0.1748878641       -0.7401685677       -0.9373442014
 C         -0.8945481490        0.5468187319       -0.4956830567
 C         -1.4553688597        0.4169393636        0.9186308758
 N         -2.3938967470       -0.6818372282        1.0237346107
 C         -1.8002781163       -1.9528379360        0.6552021698
 C         -1.1432098755       -1.9162327928       -0.7281201145
 S         -3.9160655498       -0.4059515970        0.3933896464
 O         -4.1555918530        1.0223110415        0.3933022415
 O         -4.1047159136       -1.0629767309       -0.8902840989
 C         -4.9826317919       -1.1771705202        1.6067308886
 N          1.0534201317       -0.8928973372       -0.1607253167
 C          1.4268074888       -1.9651243222        0.5953869359
 N          2.5662130945       -1.8314887514        1.2006173840
 C          3.0193205509       -0.5898399290        0.8306633764
 C          2.0821544357        0.0144725296       -0.0449075935
 C          2.4082295267        1.2747460452       -0.5704390828
 C          1.8918811865        2.2440316137       -1.4752364702
 C          2.7893627923        3.2711609064       -1.5189646067
 N          3.8415941139        3.0085961696       -0.6970333721
 C          3.6496095051        1.7999001448       -0.1080867030
 N          4.5193562302        1.2430222521        0.7395908682
 C          4.2046713181        0.0526681428        1.1994200275
 H         -0.2196689655        1.3977257855       -0.5260052712
 H         -1.7294750844        0.7337268824       -1.1746946932
 H         -0.6549640350        0.2423103959        1.6431735426
 H         -1.9953668128        1.3235684534        1.1898458547
 H         -1.0833780140       -2.2043680670        1.4403279281
 H         -2.5959405259       -2.6970470994        0.6481574625
 H         -1.9445062687       -1.7978083499       -1.4603832702
 H         -0.6458623894       -2.8647629357       -0.9294057121
 H          0.8456837074       -2.8596485981        0.6745275030
 H          0.9840500048        2.2040142811       -2.0426417029
 H          2.7451087921        4.1773347583       -2.0893454506
 H          4.9050118078       -0.4136597385        1.8754812623
 H          4.6449378539        3.5949048435       -0.5453271033
 H          0.9764537943        0.0544825402       -2.6002633002
 H          0.6010612235       -1.6611129274       -2.7300700031
 H         -0.6594153327       -0.4599529799       -3.0273512502
 H         -4.7911303922       -0.6830178120        2.5481746539
 H         -4.7456051895       -2.2303783262        1.6503851986
 H         -6.0039291721       -1.0238842537        1.2836187955
  42
        -67.91357461
 C          0.2608797877       -0.7157275156        2.4208267190
 C         -0.1444894557       -0.7550632583        0.9413288178
 C         -1.0963311973       -1.9451013917        0.7302166958
 C         -1.7392543329       -1.9819961984       -0.6578004104
 N         -2.4010375185       -0.7344905701       -0.9782850324
 C         -1.5159340998        0.4076291037       -0.8623639115
 C         -0.8904152895        0.5255220091        0.5274839490
 S         -3.9345426502       -0.5140314028       -0.3584765130
 O         -4.4773118525       -1.8115338845       -0.0105916531
 O         -3.9567849258        0.4708853194        0.7105635787
 C         -4.8272193884        0.1354520242       -1.7674301357
 N          1.0767382754       -0.8843295640        0.1491039066
 C          1.4666378095       -1.9523088558       -0.6050183977
 N          2.5980377631       -1.7971970216       -1.2202445112
 C          3.0291564122       -0.5455850015       -0.8573401358
 C          2.0877125086        0.0418950420        0.0248512373
 C          2.3956278988        1.3073979877        0.5490897626
 C          1.8712871434        2.2650079156        1.4618529812
 C          2.7506169653        3.3079917582        1.4989042248
 N          3.7985572196        3.0666592780        0.6650074970
 C          3.6229207286        1.8555963548        0.0758820543
 N          4.4949253409        1.3154224837       -0.7803745364
 C          4.1988335812        0.1190733402       -1.2369593798
 H         -0.5888520266       -2.8874328014        0.9354404545
 H         -1.9057174992       -1.8386909070        1.4569224225
 H         -1.0051402460       -2.1650086705       -1.4457755430
 H         -2.5006958218       -2.7614018260       -0.6875074744
 H         -0.7413106904        0.3016071973       -1.6275188987
 H         -2.1021303394        1.3018494261       -1.0694892690
 H         -1.6916630529        0.7091586871        1.2446727545
 H         -0.2171784987        1.3782554595        0.5264330242
 H          0.9034657819       -2.8591178888       -0.6758137766
 H          0.9713857661        2.2059490409        2.0399899991
 H          2.6963140774        4.2117182873        2.0722502245
 H          4.9018612866       -0.3345362686       -1.9188483570
 H          4.5905580922        3.6668070366        0.5079006120
 H          0.6764103048       -1.6774318467        2.7139312079
 H          1.0122400690        0.0473630448        2.5960840282
 H         -0.6053344640       -0.5067042928        3.0415795518
 H         -4.8054323578       -0.6288002978       -2.5307555849
 H         -4.3329173639        1.0398437891       -2.0917387900
 H         -5.8397321975        0.3410757484       -1.4461017148
  42
        -67.91328101
 C          0.8326003716       -2.3180153627       -2.0487131351
 C         -0.1895619578       -1.7111993832       -1.0764664151
 C         -1.0486983974       -0.6340452871       -1.7785022740
 C         -2.5056922428       -0.6295695294       -1.3004724469
 N         -2.6149838791       -0.9704037803        0.1016491012
 C         -2.2086762347       -2.3333860459        0.3877487228
 C         -1.1116358253       -2.8294730203       -0.5669821409
 S         -2.2112150483        0.2353125494        1.1736045460
 O         -1.7694264026       -0.3712060404        2.4117097946
 O         -1.3159999973        1.2161307519        0.5872554688
 C         -3.8000767671        1.0167789038        1.4552734254
 N          0.5683930071       -1.1059650040        0.0196964429
 C          0.7011660898       -1.5729240087        1.2937777185
 N          1.4610380665       -0.8552104876        2.0614267848
 C          1.8830512951        0.1816485358        1.2650919658
 C          1.3511194469        0.0230952404       -0.0376243213
 C          1.7482952189        0.9451896811       -1.0165499007
 C          1.5882726182        1.1878977015       -2.4091903429
 C          2.3054806329        2.3097678673       -2.7056558798
 N          2.9102078370        2.7889227212       -1.5835220956
 C          2.6011569651        1.9789275793       -0.5372272276
 N          3.0655361984        2.1593294017        0.7031842268
 C          2.7128078245        1.2564509598        1.5924906772
 H         -0.6272894162        0.3447914968       -1.5617303322
 H         -1.0285016109       -0.7951713624       -2.8554288584
 H         -2.9293308267        0.3645711208       -1.4339858412
 H         -3.1105092689       -1.3522035966       -1.8514285539
 H         -1.8880503565       -2.3397750391        1.4293549507
 H         -3.0917686170       -2.9741118074        0.2970787719
 H         -1.5791597952       -3.2639681275       -1.4511063256
 H         -0.5288654764       -3.6136027068       -0.0853030093
 H          0.2449297732       -2.4752081958        1.6432661337
 H          1.0270504937        0.6111540094       -3.1144600406
 H          2.4283271474        2.8008992468       -3.6500728609
 H          3.0945261309        1.3810617620        2.5949089423
 H          3.4999052573        3.6013240110       -1.5197540227
 H          1.4210677714       -3.0781826158       -1.5394051827
 H          0.3266494376       -2.7754651612       -2.8931186125
 H          1.5105620447       -1.5516657464       -2.4125528197
 H         -4.1625290961        1.3960042970        0.5105630924
 H         -3.6443016919        1.8215256549        2.1612867057
 H         -4.4547378644        0.2598263262        1.8625238699
  42
        -67.91303308
 C          0.3004325151       -1.2528425089        2.3215657688
 C         -0.1321084025       -0.9649950332        0.8771010266
 C         -1.1073668681       -2.0707067418        0.4333586232
 C         -1.7723546100       -1.8070501686       -0.9221350240
 N         -2.3502341756       -0.4866054330       -1.0120019418
 C         -1.4655704068        0.5871429817       -0.6268865742
 C         -0.8677280652        0.3838356684        0.7657445758
 S         -3.9661715423       -0.3026278933       -0.8100274059
 O         -4.2994686873        1.0376512192       -1.2481197360
 O         -4.6079946828       -1.3882798543       -1.5238084832
 C         -4.4179558486       -0.4439778739        0.9285815370
 N          1.0733287283       -0.9295132035        0.0528946766
 C          1.4377196321       -1.8098995018       -0.9230660943
 N          2.5548595905       -1.5276147916       -1.5188725975
 C          3.0017817944       -0.3827003858       -0.9075204570
 C          2.0864147283        0.0013431054        0.1044074739
 C          2.4167351714        1.1218798286        0.8833000198
 C          1.9261227590        1.8563688994        1.9992335222
 C          2.8113772273        2.8675922219        2.2355356742
 N          3.8313327792        2.8159438552        1.3364946996
 C          3.6322348162        1.7614217912        0.5041539025
 N          4.4779063939        1.4198523163       -0.4724438259
 C          4.1644136944        0.3487276778       -1.1666263375
 H         -0.6017048528       -3.0353792304        0.4034738168
 H         -1.8783718824       -2.1315069594        1.2012710575
 H         -1.0496379416       -1.8993152271       -1.7384102906
 H         -2.5821073136       -2.5144964233       -1.1028113122
 H         -0.6643139861        0.6466477549       -1.3719626991
 H         -2.0498840177        1.5057869453       -0.6764268693
 H         -1.6558032091        0.4066308766        1.5165559742
 H         -0.1846440150        1.2068320898        0.9557985692
 H          0.8697788506       -2.6808857838       -1.1745427277
 H          1.0469229262        1.6707969812        2.5816446212
 H          2.7802348676        3.6248687194        2.9931274091
 H          4.8475288121        0.0523905705       -1.9481929675
 H          4.6197863529        3.4386594022        1.2872468862
 H         -0.5445127028       -1.1676671125        2.9973305836
 H          0.7019087698       -2.2612534206        2.3898957841
 H          1.0736787709       -0.5602293456        2.6370010194
 H         -3.9612816137        0.3759119858        1.4638570019
 H         -4.0962954013       -1.4113376407        1.2864593399
 H         -5.4963756846       -0.3657381117        0.9598198647
  42
        -67.91288941
 C         -0.1394893517       -3.3306167905       -0.0631634766
 C          0.1401604729       -1.8287540814       -0.0417731421
 C         -0.4155265033       -1.1724364315       -1.3226638007
 C         -1.9293500714       -0.9862877445       -1.2731504678
 N         -2.2775887976       -0.2535124841       -0.0733595271
 C         -1.9746676131       -1.0061150033        1.1272422449
 C         -0.4644785424       -1.2012963628        1.2311398986
 S         -3.7374585200        0.5469182237       -0.0501185555
 O         -4.1700566001        0.7478463126       -1.4177475802
 O         -4.6863491706       -0.1375165369        0.8124412536
 C         -3.3086038610        2.1290715944        0.6689128990
 N          1.5822419865       -1.5853051825       -0.0113169732
 C          2.5838135681       -2.5112797244       -0.0074430066
 N          3.7812719764       -2.0125210485        0.0230316326
 C          3.5982203555       -0.6511647563        0.0412479579
 C          2.2115458607       -0.3631486618        0.0190295841
 C          1.8238197751        0.9845671501        0.0330002472
 C          0.6368574010        1.7699684605        0.0211161042
 C          1.0282989086        3.0772145053        0.0540556982
 N          2.3876695961        3.1612731578        0.0866073579
 C          2.9077127616        1.9064910172        0.0732171366
 N          4.2171292776        1.6385392382        0.0948616703
 C          4.5553139941        0.3679681959        0.0777514592
 H          0.0513247075       -0.1997623513       -1.4608857565
 H         -0.1616168366       -1.7924521545       -2.1829546014
 H         -2.2753503549       -0.3980087308       -2.1227579475
 H         -2.4460679018       -1.9554639343       -1.2967277538
 H         -2.3462764585       -0.4410175227        1.9810383103
 H         -2.5013138737       -1.9693512953        1.1153198770
 H         -0.2458584332       -1.8434186521        2.0848447132
 H          0.0009696486       -0.2344653295        1.4088156577
 H          2.4060487533       -3.5660837541       -0.0274768617
 H         -0.3759608693        1.4214912342       -0.0152486694
 H          0.4243476301        3.9624952013        0.0574835624
 H          5.6109244581        0.1423206525        0.0937378376
 H          2.9350672907        4.0048280895        0.1131702262
 H          0.2880641367       -3.7942958750       -0.9484017803
 H          0.2613453033       -3.8142012782        0.8239401607
 H         -1.2124963488       -3.4935491660       -0.0814583655
 H         -2.6817737937        2.6376094137       -0.0500705441
 H         -2.7890644445        1.9494814276        1.5993369888
 H         -4.2299658990        2.6704879083        0.8371318170
  42
        -67.91252736
 C          0.7770664156       -1.8835808073        2.2480438416
 C          0.0218079128       -1.2854014271        1.0543652569
 C         -1.0255161589       -2.3042241270        0.5771678491
 C         -1.9897542225       -1.7614240628       -0.4774562686
 N         -2.6184114828       -0.5425307115        0.0032004417
 C         -1.6283192335        0.4759244704        0.3041133309
 C         -0.7328546213       -0.0012858866        1.4408709190
 S         -3.8097998880       -0.0025604614       -1.0440679235
 O         -4.1865294163        1.3307107404       -0.6248338689
 O         -3.3671023054       -0.1110860787       -2.4258376127
 C         -5.1761080565       -1.1223768125       -0.7467306422
 N          1.0021397469       -0.9757832751        0.0161045504
 C          1.1278138512       -1.5642637750       -1.2072786116
 N          2.0624728873       -1.0658575839       -1.9567261842
 C          2.6299181144       -0.0722028034       -1.1978519640
 C          1.9831844307       -0.0116214304        0.0619730619
 C          2.4780724942        0.9084522450        0.9996051463
 C          2.2623746759        1.3131548473        2.3466980929
 C          3.1665555546        2.2980732073        2.6195053795
 N          3.9405049587        2.5391749434        1.5264262223
 C          3.5579820895        1.7067418602        0.5237095551
 N          4.1451921612        1.6742713514       -0.6763814815
 C          3.6854708351        0.7831194173       -1.5263004129
 H         -0.5426979059       -3.2044387524        0.1987250496
 H         -1.6117225636       -2.5803512141        1.4532718696
 H         -1.4878299117       -1.5574626316       -1.4330269174
 H         -2.7783076653       -2.4906345095       -0.6592736590
 H         -1.0306891519        0.7075100413       -0.5923178091
 H         -2.1755628000        1.3756402347        0.5863562603
 H         -1.3527874073       -0.2093027085        2.3112619846
 H         -0.0395938628        0.7991666932        1.6815218745
 H          0.5257850360       -2.3875695052       -1.5304720014
 H          1.5499292506        0.9290664322        3.0477986044
 H          3.3102059751        2.8446488576        3.5299451551
 H          4.1613418872        0.7351414394       -2.4941258443
 H          4.6889779913        3.2077838387        1.4565444847
 H          1.1821388338       -2.8555031027        1.9765232013
 H          1.6027102872       -1.2435124984        2.5407723146
 H          0.1096175081       -2.0064776073        3.0945614421
 H         -5.0348141191       -2.0099446542       -1.3469601759
 H         -6.0759473570       -0.5981868051       -1.0412756462
 H         -5.1815439522       -1.3351313152        0.3129220022
  42
        -67.91249385
 C          0.7773053587       -1.5191135477        2.4601906296
 C          0.0403782320       -1.1166578580        1.1764284391
 C         -0.9863035281       -2.2128782848        0.8395626294
 C         -1.9290311405       -1.8421842863       -0.3066042643
 N         -2.5689445806       -0.5789501094       -0.0088230474
 C         -1.6196173134        0.5002680007        0.1505510630
 C         -0.7281934288        0.2062932503        1.3542593221
 S         -3.9473438920       -0.2392755266       -0.8427053393
 O         -4.8043233422       -1.4021440658       -0.7418878106
 O         -4.4822970004        0.9918585312       -0.3000387460
 C         -3.5346768356        0.0246916906       -2.5747149036
 N          1.0391877186       -0.9568569669        0.1215118619
 C          1.1974024970       -1.7273335821       -0.9928611473
 N          2.1433190746       -1.3390243901       -1.7914985626
 C          2.6880856038       -0.2354966658       -1.1833142241
 C          2.0147720229        0.0110353246        0.0397671268
 C          2.4837635093        1.0696457147        0.8336744561
 C          2.2378385849        1.6741509086        2.0981538172
 C          3.1297413204        2.6980213111        2.2338131232
 N          3.9230939451        2.7771357199        1.1310264711
 C          3.5676614000        1.7964053200        0.2613615851
 N          4.1790173729        1.5863341364       -0.9081096191
 C          3.7435924256        0.5705767987       -1.6195237450
 H         -0.4862406192       -3.1543184348        0.6151181756
 H         -1.5910802835       -2.3615380871        1.7338104977
 H         -1.3838966302       -1.7739322114       -1.2571694208
 H         -2.7227961943       -2.5837642160       -0.4018994997
 H         -1.0024871937        0.6168017408       -0.7527657046
 H         -2.1973979077        1.4103624490        0.3105754997
 H         -1.3539882857        0.1262160243        2.2417397485
 H         -0.0407450408        1.0376969514        1.4799732281
 H          0.6115568378       -2.5997815775       -1.1935725885
 H          1.5146799840        1.3951167053        2.8371498646
 H          3.2512227406        3.3788690583        3.0524015086
 H          4.2401677645        0.3805330647       -2.5589415090
 H          4.6686335312        3.4342033515        0.9744690201
 H          0.0919080940       -1.5314559607        3.3014662685
 H          1.2038773406       -2.5125579832        2.3429576630
 H          1.5849381278       -0.8269598492        2.6744091704
 H         -2.8385090217        0.8497869841       -2.6299594566
 H         -4.4605040776        0.2684911371       -3.0768982541
 H         -3.1171451116       -0.8936273801       -2.9628188051
  42
        -67.91244491
 C          0.2277393709       -0.8904343194       -2.1097824494
 C         -0.0772958296       -0.8011055458       -0.6121524448
 C         -0.7834542024        0.5031967398       -0.1942632333
 C         -2.1934321867        0.6040879701       -0.7783529668
 N         -3.0015246106       -0.5602633083       -0.4955500472
 C         -2.3818818179       -1.8318929234       -0.7892111160
 C         -0.9834889988       -1.9646059116       -0.1772493022
 S         -4.0848308340       -0.4824572385        0.7351259620
 O         -4.7424221151        0.8050193107        0.6383998156
 O         -4.9400519792       -1.6465745089        0.6201611151
 C         -3.2622627086       -0.5618112254        2.3371721648
 N          1.2002004619       -0.8626545765        0.1022269834
 C          1.6081016015       -1.8203953372        0.9843277500
 N          2.7846666599       -1.6221682959        1.4929681400
 C          3.2235968988       -0.4524036463        0.9240668205
 C          2.2357855071        0.0411846310        0.0351667625
 C          2.5216077970        1.2276867885       -0.6578307343
 C          1.9361093663        2.0928780576       -1.6237190124
 C          2.8264814334        3.1015588105       -1.8516087459
 N          3.9387952415        2.9253836186       -1.0877350907
 C          3.7925304877        1.7938809206       -0.3507230166
 N          4.7192865003        1.3361517401        0.4962108491
 C          4.4335558737        0.2181302201        1.1255240659
 H         -0.8318570418        0.5199207350        0.8963274764
 H         -0.2095569166        1.3703627152       -0.5103552929
 H         -2.7271424796        1.4595424934       -0.3645128025
 H         -2.1459914909        0.7257550023       -1.8639177155
 H         -3.0506606952       -2.5982182634       -0.3972489175
 H         -2.3335299798       -1.9439458486       -1.8750942318
 H         -0.5596268914       -2.9172999656       -0.4946633140
 H         -1.0717161146       -1.9628478260        0.9093231844
 H          1.0180501010       -2.6764218009        1.2364413915
 H          0.9866841934        1.9995788454       -2.1105744483
 H          2.7376963420        3.9389582175       -2.5144739618
 H          5.1770303586       -0.1648826418        1.8079826627
 H          4.7498715209        3.5200654267       -1.0639952881
 H          1.0077504667       -0.1879788560       -2.3833313499
 H          0.5779122617       -1.8916257571       -2.3505248513
 H         -0.6543483073       -0.6791675419       -2.7029413008
 H         -2.5682681951        0.2633850831        2.4077369650
 H         -2.7785380143       -1.5240608869        2.4243344085
 H         -4.0470886714       -0.4627770975        3.0749176240
  42
        -67.91241736
 C          0.7460845607       -1.8768173557       -2.2490782300
 C          0.0258351032       -1.3028282492       -1.0222109093
 C         -0.7762225834       -0.0382038999       -1.3751584720
 C         -1.6578728962        0.4132087288       -0.2153770393
 N         -2.5921028422       -0.6445580125        0.1223133320
 C         -1.8957030586       -1.8278290070        0.5942847213
 C         -0.9726080086       -2.3515402004       -0.5041252494
 S         -3.8124302793       -0.1260150442        1.1432911290
 O         -4.4578274507       -1.3019985722        1.6882826263
 O         -3.2990478682        0.8103935300        2.1311836721
 C         -4.9479657265        0.7077269495        0.0378156266
 N          1.0413457708       -0.9719273268       -0.0247927956
 C          1.2420460005       -1.5701621336        1.1837409287
 N          2.1991907720       -1.0551918376        1.8926501062
 C          2.7041460257       -0.0400159900        1.1182050070
 C          1.9958237872        0.0163993789       -0.1080312721
 C          2.4223033121        0.9575353051       -1.0585057375
 C          2.1333898124        1.3689992513       -2.3898324235
 C          2.9976527120        2.3802993193       -2.6938951252
 N          3.8145204932        2.6322813519       -1.6351403439
 C          3.5024570645        1.7795843916       -0.6251899405
 N          4.1480720005        1.7497580035        0.5446922774
 C          3.7532239883        0.8380047554        1.4052040304
 H         -0.1105408556        0.7805999396       -1.6313574298
 H         -1.4120036139       -0.2633534675       -2.2296698021
 H         -1.0503351620        0.6804643218        0.6624352388
 H         -2.2355224600        1.2907801401       -0.5002571869
 H         -1.3423310330       -1.5884677812        1.5137966627
 H         -2.6582119526       -2.5669716715        0.8429520746
 H         -1.5939918883       -2.6427680563       -1.3504979711
 H         -0.4525328725       -3.2405172591       -0.1494606154
 H          0.6768375260       -2.4118839136        1.5262846623
 H          1.4019252016        0.9704622402       -3.0625594257
 H          3.0845120400        2.9389577495       -3.6041556193
 H          4.2769457576        0.7910228685        2.3480988188
 H          4.5470443824        3.3205997166       -1.5926938818
 H          0.0448685316       -2.0277938859       -3.0631456566
 H          1.5340326507       -1.2085514679       -2.5803183960
 H          1.1975046440       -2.8329717104       -1.9949383182
 H         -4.5625544939        1.6937086790       -0.1787246698
 H         -5.8974874082        0.7701255891        0.5535391257
 H         -5.0261378543        0.0928855280       -0.8475667158
  42
        -67.91239168
 C          0.7262136533       -1.8545956076        2.2529219274
 C          0.0223045085       -1.2882305239        1.0130396846
 C         -0.9763218134       -2.3370176640        0.4945171330
 C         -1.8864219653       -1.8195035677       -0.6182923584
 N         -2.5763722593       -0.6280350910       -0.1612756870
 C         -1.6398619318        0.4284374835        0.1693223713
 C         -0.7750698161       -0.0145494032        1.3449682003
 S         -3.8396215376       -0.1186482076       -1.1292966212
 O         -3.4116394094        0.9435865553       -2.0255626304
 O         -4.4060854880       -1.2838396539       -1.7766149444
 C         -5.0165203656        0.5219768306        0.0564981916
 N          1.0503944202       -0.9728845117        0.0234367915
 C          1.2593057369       -1.5829950524       -1.1777512726
 N          2.2263556411       -1.0800166650       -1.8818094345
 C          2.7298720381       -0.0610567973       -1.1114456186
 C          2.0099022859        0.0105254903        0.1072692055
 C          2.4326099548        0.9579307753        1.0532465111
 C          2.1331680532        1.3833015197        2.3778695661
 C          3.0000652654        2.3926439145        2.6809910125
 N          3.8286928524        2.6301732395        1.6280116821
 C          3.5216855010        1.7697457135        0.6230860135
 N          4.1786557174        1.7253614357       -0.5399218072
 C          3.7868000000        0.8082277199       -1.3960330092
 H         -0.4566170039       -3.2317920893        0.1542618034
 H         -1.6071002133       -2.6166667854        1.3377953576
 H         -1.3224691221       -1.5945238195       -1.5347320554
 H         -2.6510424974       -2.5562481138       -0.8664513747
 H         -1.0192257520        0.6780528946       -0.7045002659
 H         -2.2135821475        1.3165689862        0.4291810977
 H         -1.4219304374       -0.2263864346        2.1945136086
 H         -0.1065697414        0.8023071029        1.5999463350
 H          0.6925459694       -2.4243910392       -1.5184093194
 H          1.3928030056        0.9952748166        3.0470309211
 H          3.0813048982        2.9591415730        3.5869157817
 H          4.3196496530        0.7496750184       -2.3331577264
 H          4.5664925524        3.3129323640        1.5869252632
 H          1.1757112662       -2.8151819913        2.0125191412
 H          1.5138005349       -1.1872845986        2.5869098265
 H          0.0153834298       -1.9946792798        3.0605464904
 H         -5.9034267848        0.8061222096       -0.4944213495
 H         -4.5779010408        1.3777325769        0.5489065858
 H         -5.2257517764       -0.2816174988        0.7479142688
  42
        -67.91188358
 C          0.8221898204       -2.3029439286       -2.0759510595
 C         -0.1243968739       -1.6763210729       -1.0425940798
 C         -0.9604617571       -0.5349104085       -1.6759743912
 C         -2.4619015754       -0.6845473928       -1.4290019670
 N         -2.7330740519       -0.9622364892       -0.0338475426
 C         -2.1425328728       -2.2080262104        0.4418529172
 C         -1.0831482504       -2.7571467466       -0.5192787249
 S         -2.5420470089        0.3358535800        0.9983363096
 O         -1.2967797520        0.2705647109        1.7446157852
 O         -2.7433389066        1.5521254210        0.2376141012
 C         -3.9117231571        0.1143230567        2.1299651973
 N          0.7071285511       -1.1505918642        0.0414628266
 C          0.8791492904       -1.6874794417        1.2833222957
 N          1.6787510282       -1.0247926849        2.0594892454
 C          2.0876649534        0.0475484858        1.3061602177
 C          1.5012947530       -0.0297177996        0.0185430298
 C          1.8728865973        0.9424970832       -0.9212356478
 C          1.6604650587        1.2646889199       -2.2895377061
 C          2.3843939565        2.3901262712       -2.5538061681
 N          3.0433350058        2.7966403793       -1.4332487668
 C          2.7633127544        1.9342026854       -0.4211857180
 N          3.2819386586        2.0356855897        0.8066496893
 C          2.9496719965        1.0889783814        1.6576824080
 H         -0.6593423348        0.4180186120       -1.2381017735
 H         -0.7856796432       -0.4938964275       -2.7498716206
 H         -2.9646937721        0.2520605826       -1.6676561023
 H         -2.9006339143       -1.4874623991       -2.0223380825
 H         -1.7075085494       -1.9977024877        1.4208671626
 H         -2.9436576600       -2.9439722131        0.5593925308
 H         -1.5770524054       -3.1912194111       -1.3883156207
 H         -0.5284665404       -3.5566267121       -0.0305065480
 H          0.4203273939       -2.6001609633        1.6016484531
 H          1.0603872616        0.7360418974       -2.9995264683
 H          2.4764671365        2.9312212425       -3.4741355664
 H          3.3759647989        1.1501094587        2.6477930253
 H          3.6493462306        3.5951170840       -1.3500359171
 H          1.3769153801       -3.1220211332       -1.6236766334
 H          0.2585016854       -2.6850342827       -2.9213129189
 H          1.5351830739       -1.5631807452       -2.4296242677
 H         -3.7921962497       -0.8449498509        2.6132155372
 H         -4.8159114165        0.1586802945        1.5401559457
 H         -3.8723540292        0.9192155955        2.8518715968
  42
        -67.91150194
 C          0.0881376360       -0.8370210842       -1.8715828390
 C          0.0191011603       -0.8058758955       -0.3414375224
 C         -0.5935656051        0.4880275549        0.2312859473
 C         -2.0817978636        0.6089045030       -0.0876686059
 N         -2.7719476961       -0.5617959116        0.4058435449
 C         -2.2987525740       -1.8026437957       -0.1659120138
 C         -0.8213819320       -1.9821048086        0.1846403481
 S         -4.3801429558       -0.4258902151        0.7097679169
 O         -4.7996246228       -1.6469818868        1.3658846999
 O         -4.5754873143        0.7992269192        1.4568938735
 C         -5.2477570482       -0.2876534096       -0.8611489095
 N          1.3909462386       -0.9048603324        0.1599004006
 C          1.9189674350       -1.8964732770        0.9335158400
 N          3.1616662388       -1.7227266891        1.2628033489
 C          3.5190907814       -0.5324387902        0.6791356215
 C          2.4117938100       -0.0019704007       -0.0291457724
 C          2.5999059426        1.2086741285       -0.7138193300
 C          1.8829691841        2.1101989738       -1.5490217615
 C          2.7358154201        3.1260416949       -1.8694091523
 N          3.9484503214        2.9198184874       -1.2873836434
 C          3.9061931595        1.7611252537       -0.5796831174
 N          4.9467198405        1.2691771904        0.0994578282
 C          4.7508670814        0.1272522826        0.7203881195
 H         -0.4719032854        0.4635715462        1.3159052994
 H         -0.0718833298        1.3637756499       -0.1451655895
 H         -2.5125460563        1.4679208557        0.4268098702
 H         -2.2314217259        0.7255480604       -1.1684716773
 H         -2.8928777675       -2.5995539713        0.2815112475
 H         -2.4379974694       -1.8157464361       -1.2535079247
 H         -0.4696816152       -2.9236665984       -0.2367403023
 H         -0.7435836347       -2.0234772234        1.2713897025
 H          1.3640499825       -2.7574015970        1.2425164931
 H          0.8709046934        2.0355061115       -1.8908999772
 H          2.5549243085        3.9880932026       -2.4798106281
 H          5.5861894510       -0.2836810314        1.2668813415
 H          4.7574580602        3.5132362968       -1.3610120942
 H          0.8446857400       -0.1482033922       -2.2320685868
 H          0.3589427573       -1.8368141239       -2.2030274664
 H         -0.8635846349       -0.5694898158       -2.3153287111
 H         -5.0481480678       -1.1847778965       -1.4300102101
 H         -4.8942521771        0.6050780601       -1.3574251909
 H         -6.3002476440       -0.2064800986       -0.6279964976
  42
        -67.91131809
 C          1.0318889986       -2.4760580788       -1.7858147274
 C         -0.0902076834       -1.7293753337       -1.0542307312
 C         -0.8553815752       -0.7833336440       -1.9933838375
 C         -1.8645978190        0.0601251762       -1.2098482712
 N         -2.4023984456       -0.6691079176       -0.0803416058
 C         -2.4703329685       -2.1073819342       -0.1872559437
 C         -1.1112998724       -2.7541371574       -0.5324331787
 S         -2.5276498732        0.0986079958        1.3624409280
 O         -2.5070059431       -0.8885103899        2.4224205604
 O         -1.5583751007        1.1742461372        1.4381794028
 C         -4.1658343993        0.8314383000        1.3090298271
 N          0.5148279323       -0.9653693663        0.0370406425
 C          0.3557998964       -1.1636300816        1.3770793395
 N          1.0379913593       -0.3584791966        2.1307168183
 C          1.6982136915        0.4668182490        1.2548015572
 C          1.3944129201        0.0864404985       -0.0756959685
 C          2.0312278166        0.7890563250       -1.1112415857
 C          2.1412858490        0.7802726710       -2.5303415729
 C          2.9862488159        1.7943791309       -2.8758520206
 N          3.4176035953        2.4433976411       -1.7604561374
 C          2.8679154120        1.8531921900       -0.6672363952
 N          3.1235654146        2.2392581623        0.5868683636
 C          2.5479607549        1.5385520419        1.5391350949
 H         -0.1817216556       -0.1121933043       -2.5157796392
 H         -1.3738946893       -1.3987232580       -2.7278017774
 H         -1.3871013763        0.9523592771       -0.7980557954
 H         -2.6825811240        0.3719274920       -1.8689026420
 H         -2.8371287465       -2.4630910409        0.7746451323
 H         -3.2081883269       -2.3484900713       -0.9582178251
 H         -1.2656613697       -3.4850877862       -1.3258503502
 H         -0.7021311193       -3.2901854026        0.3217506315
 H         -0.2859014126       -1.9102348681        1.7966054274
 H          1.6888229739        0.1052680854       -3.2274688033
 H          3.3116215548        2.0958320533       -3.8512465788
 H          2.7554956921        1.8284500833        2.5582860488
 H          4.0543476803        3.2214329285       -1.7268723149
 H          1.4192101419       -3.2701269659       -1.1515811950
 H          0.6550720465       -2.9125011175       -2.7053969083
 H          1.8503869161       -1.8044732965       -2.0235626206
 H         -4.3156767054        1.3570401282        2.2422403312
 H         -4.8778744349        0.0263279299        1.1962796115
 H         -4.1907217830        1.5146016630        0.4719430333
  42
        -67.91017476
 C         -0.2797406711       -0.5362503607        1.7236349519
 C         -0.1240947959       -0.9417561979        0.2524537197
 C         -0.8289043790       -2.2850800710        0.0031564803
 C         -2.3507235848       -2.1528617312        0.0610812289
 N         -2.8505447970       -1.0754637583       -0.7886345961
 C         -1.8307003768       -0.4215853735       -1.5841892316
 C         -0.7202531177        0.1321366903       -0.6929585828
 S         -3.9081668213       -0.0452927192       -0.0086657637
 O         -3.5461321605        0.1513484136        1.3884050042
 O         -4.0222351943        1.1697570255       -0.7875109979
 C         -5.4479106064       -0.9523268813       -0.0859108808
 N          1.3072281262       -1.0861860065       -0.0184397880
 C          1.9901631629       -2.2389582218       -0.2801982962
 N          3.2675966152       -2.0859942948       -0.4452494437
 C          3.4885133563       -0.7414123255       -0.2763165152
 C          2.2589434046       -0.0940116545        0.0019031851
 C          2.2882448750        1.2901574984        0.2215836320
 C          1.4016282454        2.3561978513        0.5324824130
 C          2.1542238934        3.4916614051        0.6106525353
 N          3.4632631597        3.2044248838        0.3678496465
 C          3.5845323928        1.8728768094        0.1282455874
 N          4.7443923130        1.2657516081       -0.1395627145
 C          4.6919488380       -0.0327952022       -0.3397159573
 H         -0.5466433524       -2.6649098343       -0.9787489521
 H         -0.5239819828       -3.0094830302        0.7582613499
 H         -2.8026803344       -3.0905764153       -0.2744074695
 H         -2.6729378421       -1.9507625482        1.0846779820
 H         -1.4538108234       -1.1353868021       -2.3178479356
 H         -2.3226014936        0.3975398314       -2.1083488000
 H         -1.1672031178        0.9298921558       -0.0973361266
 H          0.0618301919        0.5667392339       -1.3151203533
 H          1.5220342994       -3.1985793859       -0.3438538853
 H          0.3429092424        2.3047524280        0.6812344650
 H          1.8389213680        4.4930709871        0.8258236699
 H          5.6242631119       -0.5325999124       -0.5540455151
 H          4.2291945188        3.8567445267        0.3662341582
 H         -1.3168610538       -0.2920101186        1.9412898023
 H          0.0393285236       -1.3478398797        2.3740577131
 H          0.3304882707        0.3355117464        1.9425996156
 H         -5.3153506685       -1.8796570907        0.4529343235
 H         -5.6576286543       -1.1202663184       -1.1323421519
 H         -6.2127186873       -0.3411915576        0.3750833993
  42
        -67.91013160
 C          0.0975109522       -0.4874160898       -1.9152331526
 C          0.0410804729       -0.7570049295       -0.4085721475
 C         -0.5893453305        0.3857783994        0.4078941583
 C         -2.0798504094        0.5465845388        0.1262000972
 N         -2.7714488104       -0.7028912445        0.3943305406
 C         -2.2620846179       -1.7951604262       -0.4173173629
 C         -0.7833803288       -2.0202093822       -0.1141737915
 S         -4.4339568165       -0.5389114531        0.2907691688
 O         -4.7979342641        0.2308492905       -0.8896178727
 O         -5.0071094092       -1.8665456499        0.3537861690
 C         -4.8712832377        0.3667411314        1.7730196223
 N          1.4175454613       -0.9326904259        0.0568805086
 C          1.9669913679       -2.0545641391        0.6055740952
 N          3.2125163467       -1.9352640366        0.9472874655
 C          3.5501750666       -0.6476038632        0.6111063602
 C          2.4275321835        0.0015188244        0.0386347632
 C          2.5939949034        1.3275973229       -0.3897411628
 C          1.8562642570        2.3705889258       -1.0161253302
 C          2.6958539397        3.4394675003       -1.1380290636
 N          3.9191633889        3.1342103318       -0.6261279657
 C          3.8977573553        1.8565880633       -0.1656001174
 N          4.9526729180        1.2503605353        0.3866915247
 C          4.7764735463        0.0049233374        0.7683123001
 H         -0.4611848628        0.1475070821        1.4652299532
 H         -0.0853944169        1.3277534970        0.2097550002
 H         -2.4962467809        1.3024290892        0.7900986994
 H         -2.2622167899        0.8656439853       -0.9081990937
 H         -2.8455181835       -2.6777185121       -0.1527920130
 H         -2.4227560783       -1.5904298067       -1.4840697138
 H         -0.4308263176       -2.8598339636       -0.7127495081
 H         -0.6974477508       -2.2700021558        0.9434345691
 H          1.4242106874       -2.9665516904        0.7403631681
 H          0.8402281457        2.3539293164       -1.3550368442
 H          2.4983931905        4.4040664708       -1.5611776095
 H          5.6237072208       -0.4971263853        1.2102082616
 H          4.7228782379        3.7383492512       -0.5920922584
 H         -0.8684330663       -0.1730859560       -2.2955182133
 H          0.8262483881        0.2847911654       -2.1383452620
 H          0.3961425906       -1.3940512394       -2.4370179288
 H         -4.7693088253        1.4248982307        1.5778791627
 H         -4.2095466000        0.0242552165        2.5560134298
 H         -5.8993866352        0.1142425494        1.9978144256
  42
        -67.91004733
 C          0.0678554107       -0.4941497227        1.8982790803
 C          0.0171880709       -0.7346481341        0.3865862487
 C         -0.8418562612       -1.9672488669        0.0651282802
 C         -2.3200984759       -1.7087922154        0.3519602222
 N         -2.7856374984       -0.5828616848       -0.4401644070
 C         -2.0562728569        0.6369120824       -0.1370942817
 C         -0.5716900693        0.4393870574       -0.4174836484
 S         -4.4444424271       -0.3816462509       -0.3387399973
 O         -4.8884745426       -0.4985318133        1.0423905669
 O         -4.7696616875        0.8750052955       -0.9790352772
 C         -5.1055629477       -1.7316687328       -1.3127623611
 N          1.3921642330       -0.9433865766       -0.0694009529
 C          1.9116704752       -2.0710290147       -0.6353882897
 N          3.1634137418       -1.9843369218       -0.9635034812
 C          3.5377912447       -0.7148792107       -0.5993640128
 C          2.4300917301       -0.0413926394       -0.0252749052
 C          2.6340280004        1.2710185272        0.4282887806
 C          1.9226296981        2.3265889132        1.0639172501
 C          2.7942265076        3.3658765216        1.2136492308
 N          4.0135167107        3.0298423752        0.7114447238
 C          3.9564451930        1.7617445295        0.2279328219
 N          4.9977196822        1.1323056667       -0.3240963408
 C          4.7857565235       -0.0993268551       -0.7316073226
 H         -0.7484353435       -2.2002991818       -0.9955913226
 H         -0.5177540104       -2.8244785051        0.6547147337
 H         -2.9030114629       -2.5798906196        0.0572704738
 H         -2.4987543841       -1.5249674722        1.4186016488
 H         -2.4691701334        1.4161166115       -0.7785717620
 H         -2.2262920208        0.9340417847        0.9070960194
 H         -0.0438864322        1.3643628930       -0.2023508575
 H         -0.4457369211        0.2170283628       -1.4785688539
 H          1.3435156956       -2.9636145044       -0.7922835290
 H          0.9012093783        2.3387618322        1.3870866958
 H          2.6218816799        4.3293296386        1.6502655481
 H          5.6212637525       -0.6201548733       -1.1740628797
 H          4.8361965713        3.6086434189        0.6961998668
 H          0.3551558724       -1.4137523968        2.4033572475
 H          0.8022347584        0.2666180710        2.1409409199
 H         -0.8971129399       -0.1775596739        2.2791561180
 H         -4.4310968926       -1.8773902141       -2.1447101112
 H         -6.0812625623       -1.4146503861       -1.6573680927
 H         -5.1858640588       -2.6081042055       -0.6853868590
  42
        -67.90929167
 C          0.5181548716       -1.4809524212       -2.1409471437
 C         -0.0598852363       -0.9299681106       -0.8315413361
 C         -0.7786641777        0.4183381298       -1.0593364499
 C         -1.9484440631        0.6296234721       -0.1052487346
 N         -2.9784016848       -0.3953836282       -0.2794969941
 C         -2.4660754548       -1.6423309069       -0.8303221312
 C         -1.0798471319       -1.9355163929       -0.2637261782
 S         -3.8617084930       -0.6015124428        1.1294354035
 O         -4.6977489221       -1.7721843136        0.9646943112
 O         -2.9949916053       -0.6319102553        2.3004921617
 C         -4.8902896560        0.8609097410        1.1801470944
 N          1.0557525563       -0.7385389733        0.0944587218
 C          1.3272709221       -1.4452797458        1.2289807425
 N          2.4143692647       -1.0899611812        1.8418103272
 C          2.9392286946       -0.0793977941        1.0738120873
 C          2.0998271666        0.1473578736       -0.0443042685
 C          2.4991402983        1.1241236726       -0.9690461951
 C          2.0727529807        1.6926189385       -2.2011636228
 C          3.0002386633        2.6303839124       -2.5509654332
 N          3.9848663134        2.6885868462       -1.6127447718
 C          3.7169331742        1.7839545654       -0.6358470842
 N          4.5005938395        1.5840154985        0.4283642840
 C          4.1117673174        0.6555164863        1.2737766748
 H         -0.0809081850        1.2397289825       -0.9114141467
 H         -1.1485967706        0.4604502093       -2.0825313432
 H         -1.5936060321        0.6165435877        0.9331607348
 H         -2.4099442268        1.5981166101       -0.3052503385
 H         -3.1748982901       -2.4205198999       -0.5472821326
 H         -2.4515351901       -1.5610414547       -1.9186561708
 H         -0.7786267938       -2.9568760094       -0.4933133110
 H         -1.1691756967       -1.8351770782        0.8197591880
 H          0.7059964838       -2.2377775665        1.5921564280
 H          1.1998156423        1.4491663386       -2.7702749514
 H          3.0230223292        3.2642323201       -3.4146561956
 H          4.7401193956        0.4791988733        2.1336744040
 H          4.7904974957        3.2909335412       -1.6263413152
 H         -0.2794530215       -1.6830092018       -2.8486945679
 H          1.2161407401       -0.7767533198       -2.5819407004
 H          1.0510878977       -2.4089527053       -1.9441235066
 H         -5.3221063549        0.9703060998        0.1955633496
 H         -4.2705680362        1.7030367838        1.4533187532
 H         -5.6557111674        0.6863624886        1.9250517699
  42
        -67.90903789
 C         -0.4618447999        1.5791549350        1.3547188495
 C         -0.5447578275        0.3685197000        0.4401895468
 C         -1.0893071340       -0.8400683792        1.2300219820
 C         -2.5939590638       -0.7384476115        1.4920109119
 N         -3.3587096848       -0.4593243540        0.2903937801
 C         -2.9285771926        0.7581406806       -0.3692685803
 C         -1.4550189662        0.6837085592       -0.7656192219
 S         -3.5716595143       -1.7664405994       -0.7321230491
 O         -4.1207101086       -1.2546884418       -1.9703152642
 O         -2.3677735640       -2.5704397077       -0.8899544788
 C         -4.8208574693       -2.7357568852        0.1121426543
 N          0.7789247641        0.0041552705       -0.0865716479
 C          0.8990022126       -1.0791809842       -0.9152122707
 N          2.0983756112       -1.3097463072       -1.3421500456
 C          2.8629321200       -0.3216374471       -0.7761970642
 C          2.0524318593        0.5302748761        0.0250090551
 C          2.7151589801        1.5963255496        0.6691675997
 C          2.4536763106        2.6968665889        1.5358515317
 C          3.6357733458        3.3395769597        1.7566045273
 N          4.6376953008        2.7154894999        1.0831826712
 C          4.1203076583        1.6553083280        0.4125358769
 N          4.8720841305        0.8490633073       -0.3412990468
 C          4.2378289625       -0.1367524393       -0.9321453694
 H         -0.9128273523       -1.7558170501        0.6674191962
 H         -0.5592296836       -0.9183697580        2.1801967647
 H         -2.9519435419       -1.6818603188        1.9004807672
 H         -2.8164364137        0.0578027216        2.2051878968
 H         -3.5454769586        0.8678022557       -1.2612665376
 H         -3.1252238497        1.5919557862        0.3063281403
 H         -1.1433085620        1.6244155645       -1.2216763584
 H         -1.3618682370       -0.1030823879       -1.5172838107
 H          0.0651280613       -1.6963853020       -1.1917134065
 H          1.5269688119        3.0087603485        1.9634585814
 H          3.8254913113        4.2075599995        2.3556704600
 H          4.8193368621       -0.8060679851       -1.5475849142
 H          5.6093618424        2.9754834973        1.0667076341
 H         -1.4421611954        1.8022420636        1.7615625528
 H          0.2127091526        1.3710651593        2.1792651335
 H         -0.1173435718        2.4432808611        0.7956485863
 H         -5.5296489209       -2.0385750700        0.5355876645
 H         -4.3406677526       -3.3430267842        0.8662666961
 H         -5.2895582204       -3.3589513006       -0.6382624595
  42
        -67.90864793
 C          0.0982420349       -2.7449429688       -1.3962445377
 C         -0.0947645932       -1.5692851775       -0.4320836643
 C         -0.7414857344       -0.3861697546       -1.1486574877
 C         -2.2091627899       -0.6388533332       -1.4914405240
 N         -2.9840717431       -0.9702568923       -0.3144161455
 C         -2.4512707036       -2.1139357132        0.3983566199
 C         -0.9771830865       -1.9459062771        0.7746565289
 S         -3.4327911293        0.3155777275        0.6560063965
 O         -2.6828963981        0.3510127773        1.9011237148
 O         -3.3740730275        1.5279688150       -0.1348240259
 C         -5.1449786466       -0.0650350133        1.0159827583
 N          1.2318094792       -1.1991347370        0.0847806966
 C          1.9199502893       -2.0931506689        0.8568584922
 N          3.0775892965       -1.6880045569        1.2669779441
 C          3.2057214407       -0.4280862843        0.7428943118
 C          2.0478134331       -0.0887977162       -0.0138412324
 C          2.0524278431        1.1836347408       -0.6235949352
 C          1.2394474569        2.0172153464       -1.4455345888
 C          1.9216640390        3.1786231506       -1.6588002516
 N          3.1229020159        3.1365452712       -1.0247752257
 C          3.2380260984        1.9453985001       -0.3842801493
 N          4.3180691483        1.6184380681        0.3295492436
 C          4.2949542925        0.4319249752        0.8908510830
 H         -0.7100341113        0.4798971416       -0.4836124882
 H         -0.1912711623       -0.1735939334       -2.0637955992
 H         -2.6443375527        0.2679340959       -1.9108007244
 H         -2.3217614142       -1.4543108740       -2.2077723914
 H         -3.0353225283       -2.2338518603        1.3099317161
 H         -2.5934854054       -2.9915813057       -0.2354416009
 H         -0.6332013687       -2.8713358194        1.2341613146
 H         -0.9065378267       -1.1466792024        1.5170187750
 H          1.5331300541       -3.0606817352        1.1027407727
 H          0.2634859084        1.8295389818       -1.8367160692
 H          1.6222626161        4.0365498692       -2.2268535006
 H          5.1555695267        0.1402242957        1.4730372924
 H          3.8247744907        3.8571312483       -1.0105357511
 H          0.7688629902       -2.4521946788       -2.2009443444
 H          0.5307831914       -3.5997784406       -0.8848326634
 H         -0.8500857983       -3.0457351365       -1.8271473723
 H         -5.1793625988       -1.0190826999        1.5219838677
 H         -5.6644704893       -0.0939360143        0.0691095265
 H         -5.5278136108        0.7234438388        1.6503216871
  42
        -67.90862699
 C         -0.7540386852       -2.3197197054        0.0880658718
 C         -0.1394974577       -0.9241053531       -0.0391681923
 C         -0.5106119465       -0.3167423644       -1.4020555573
 C         -2.0292356769       -0.1677422084       -1.5615133814
 N         -2.6934267809        0.1571829873       -0.3117535990
 C         -1.8740550887        0.8103833948        0.6815171301
 C         -0.6577041261       -0.0274431392        1.1071396446
 S         -3.9198782526       -0.8081399035        0.2406995559
 O         -4.0786107074       -1.9533707428       -0.6374424062
 O         -3.7281497453       -1.1151995183        1.6459370118
 C         -5.3574495332        0.2461915694        0.0720538941
 N          1.3200251198       -1.0276249858        0.0379191209
 C          2.0424408711       -2.1836235114        0.1272174790
 N          3.3280146262       -2.0203170959        0.1588883723
 C          3.5136715731       -0.6625639485        0.0817401078
 C          2.2543926093       -0.0164741492        0.0007997391
 C          2.2564923281        1.3833502391       -0.0920910166
 C          1.3403871930        2.4643420870       -0.1968940018
 C          2.0750965436        3.6127404633       -0.2517406883
 N          3.4026749772        3.3203037087       -0.1874588556
 C          3.5532806240        1.9741537466       -0.0895395514
 N          4.7395201741        1.3646939483       -0.0088834524
 C          4.7143404509        0.0532830096        0.0753829518
 H         -0.0279738889        0.6543826927       -1.4985018632
 H         -0.1300723837       -0.9576953914       -2.1980721612
 H         -2.2419734902        0.6256345989       -2.2854740266
 H         -2.4791920951       -1.0935540690       -1.9218975002
 H         -1.5673532664        1.7703077556        0.2609362938
 H         -2.5068536705        0.9957346850        1.5478912466
 H         -0.9416484747       -0.6642518633        1.9457232771
 H          0.1324355449        0.6428318514        1.4447543578
 H          1.5951075035       -3.1540188095        0.1682615048
 H          0.2726789220        2.4175390114       -0.2257244863
 H          1.7356468207        4.6258612091       -0.3328027472
 H          5.6650973938       -0.4537385954        0.1394070990
 H          4.1639716303        3.9776145853       -0.2081953793
 H         -1.8377949469       -2.2466118915        0.1120507861
 H         -0.4768522080       -2.9505013262       -0.7534418235
 H         -0.4418774524       -2.7951022212        1.0151940024
 H         -5.1794422975        1.1389162531        0.6543634306
 H         -6.2121734099       -0.3001230653        0.4475373019
 H         -5.4665911376        0.4675824230       -0.9799458225
  42
        -67.90817517
 C          1.0478045234       -2.1664362586        2.2018513040
 C          0.0054236262       -1.5400808164        1.2702516023
 C         -1.0195306335       -2.6191483156        0.8799132358
 C         -2.3267263404       -1.9983628028        0.3574656955
 N         -2.0646843618       -0.6599982568       -0.1355718874
 C         -1.6941435654        0.2827777492        0.9061554139
 C         -0.7831789680       -0.3987835378        1.9367028618
 S         -3.0948117693       -0.0442177488       -1.2783553361
 O         -3.5885899462       -1.1552281457       -2.0647886099
 O         -4.1229027167        0.7783375077       -0.6578028182
 C         -2.0486827688        0.9903769004       -2.2982130427
 N          0.6910888251       -1.0018692781        0.0986381665
 C          0.4749168979       -1.3261284241       -1.2065643833
 N          1.1453743515       -0.6111917129       -2.0585326921
 C          1.8678067740        0.2703128583       -1.2917854496
 C          1.5892244350        0.0392734011        0.0782829114
 C          2.2442224135        0.8501446575        1.0180783773
 C          2.3343918260        1.0299707135        2.4264189344
 C          3.2076606035        2.0554617507        2.6454021398
 N          3.6734632644        2.5348021948        1.4598702269
 C          3.1129007340        1.8249298968        0.4467710494
 N          3.3716605868        2.0464729820       -0.8451375637
 C          2.7521707756        1.2699002254       -1.7063360870
 H         -0.5867599259       -3.3009112368        0.1506361751
 H         -1.2438949415       -3.2002810159        1.7734581588
 H         -2.7392256109       -2.5620634189       -0.4788816674
 H         -3.0857539878       -1.9650376369        1.1498506002
 H         -1.1693065051        1.1053088103        0.4162157752
 H         -2.5933878707        0.6906298204        1.3857830443
 H         -1.3774191439       -0.8259546949        2.7430587481
 H         -0.1164018637        0.3481773691        2.3580078274
 H         -0.1987306695       -2.0957029078       -1.5205656534
 H          1.8359619252        0.4796748409        3.1979587491
 H          3.5292837357        2.4769738376        3.5767215235
 H          2.9556779565        1.4372183311       -2.7530184177
 H          4.3304671049        3.2860283465        1.3332989991
 H          1.9066033670       -1.5151942325        2.3203189063
 H          0.6122925227       -2.3578859353        3.1774981642
 H          1.3939289973       -3.1079040658        1.7822079478
 H         -1.8980806860        1.9316217275       -1.7890823673
 H         -2.5745913829        1.1384984342       -3.2319458168
 H         -1.1189289493        0.4592567639       -2.4605762300
  42
        -67.90781400
 C          0.4731636302       -1.4693286181        2.0829148723
 C         -0.0342629726       -0.9181755703        0.7448601895
 C         -1.0584306014       -1.8984774270        0.1433946810
 C         -2.4571297653       -1.5983136900        0.6737702241
 N         -2.9279171576       -0.3048979517        0.1923225365
 C         -1.8609878215        0.6576704149       -0.0624928380
 C         -0.7196123929        0.4550366324        0.9240267037
 S         -4.0276254335       -0.4192839834       -1.0593045625
 O         -4.1013753326        0.8763026999       -1.7006554240
 O         -3.7070570834       -1.5279837982       -1.9468320117
 C         -5.5672639843       -0.7511546808       -0.2093289145
 N          1.1229859645       -0.7734990158       -0.1375672301
 C          1.4155336686       -1.5017950448       -1.2531255601
 N          2.5321775155       -1.1823771043       -1.8317668399
 C          3.0557092507       -0.1752551606       -1.0584730416
 C          2.1836409297        0.0874569972        0.0264157351
 C          2.5754151278        1.0648960519        0.9532719235
 C          2.1202776627        1.6585727198        2.1627761123
 C          3.0590731560        2.5759373659        2.5355505813
 N          4.0783407143        2.5968519727        1.6331990625
 C          3.8212590029        1.6885123260        0.6567736644
 N          4.6362123495        1.4555710763       -0.3767784803
 C          4.2530499513        0.5272130674       -1.2250508656
 H         -1.1149495409       -1.7931893054       -0.9412094976
 H         -0.7821559360       -2.9264532573        0.3752770214
 H         -3.1500885446       -2.3546230925        0.3068466857
 H         -2.4779281373       -1.5890003820        1.7654244361
 H         -1.4983325296        0.5686577180       -1.0955591089
 H         -2.2969013454        1.6523544112        0.0435140115
 H         -1.1177293383        0.5343573270        1.9342270605
 H          0.0006064533        1.2556012025        0.7714809436
 H          0.7888736021       -2.2853878065       -1.6260710318
 H          1.2196334875        1.4461640076        2.7002105595
 H          3.0677244721        3.2195114982        3.3922969735
 H          4.9066053461        0.3247547441       -2.0600659226
 H          4.8981112025        3.1788589051        1.6688531766
 H         -0.3558910835       -1.6254280502        2.7653091039
 H          0.9758065652       -2.4204702155        1.9206690273
 H          1.1825923766       -0.7850649454        2.5368601343
 H         -5.7335179716        0.0827760361        0.4572863166
 H         -5.4706906978       -1.6836194886        0.3279754463
 H         -6.3434974082       -0.8142430077       -0.9605501744
  42
        -67.90775063
 C          0.2375370141       -2.3750084333        1.9926955036
 C         -0.1099176407       -1.4735966840        0.8010367520
 C         -1.0801411573       -2.1886984708       -0.1600858835
 C         -1.4836546086       -1.2626581831       -1.3059936730
 N         -2.1189180442       -0.0568708591       -0.8127536440
 C         -1.3052203108        0.6648475203        0.1487698889
 C         -0.8432267628       -0.2303670758        1.3000511584
 S         -3.7311137977       -0.1922188547       -0.3996410288
 O         -4.2910479632       -1.3258884247       -1.1064995329
 O         -3.9262543466       -0.2078207756        1.0414828854
 C         -4.4288826609        1.3144289186       -1.0686306679
 N          1.1433450259       -1.1615045117        0.1017812499
 C          1.7772373105       -2.1510471654       -0.5996128550
 N          2.9168033464       -1.8189766139       -1.1117323831
 C          3.0994093519       -0.5159105714       -0.7297840238
 C          1.9951831095       -0.0721826650        0.0517646628
 C          2.0671699646        1.2545333142        0.5282674021
 C          1.3244078969        2.1897355973        1.3062183917
 C          2.0467930506        3.3449646907        1.3665357367
 N          3.2057575835        3.2049842771        0.6719912645
 C          3.2552372944        1.9538063243        0.1490532213
 N          4.2826662014        1.5273710601       -0.5892317994
 C          4.1978943620        0.2929861119       -1.0266016679
 H         -0.6640872369       -3.1108063182       -0.5594585316
 H         -1.9826392415       -2.4452678737        0.3996422272
 H         -0.6109150504       -0.9656151855       -1.8943821553
 H         -2.2053086765       -1.7568684392       -1.9556093732
 H         -0.4541544209        1.0821854645       -0.3940156845
 H         -1.9137467655        1.4783404386        0.5415245987
 H         -1.7334560590       -0.5594229271        1.8396109397
 H         -0.2125637783        0.3101635565        1.9984748011
 H          1.3683862626       -3.1336703568       -0.7132171125
 H          0.3706258253        2.0705039535        1.7716742974
 H          1.8036017571        4.2620504053        1.8644868859
 H          5.0139220577       -0.0816082071       -1.6252204096
 H          3.9281119747        3.8953255453        0.5550535616
 H          0.9154293275       -1.8561665788        2.6668414069
 H         -0.6649209361       -2.6351286755        2.5378961098
 H          0.7178631716       -3.2903807137        1.6571541492
 H         -5.4879342153        1.3078513252       -0.8462150558
 H         -4.2513908770        1.2911488596       -2.1341661729
 H         -3.9397646846        2.1555790069       -0.5989017709
  42
        -67.90771211
 C          0.8184469661       -2.0571262662        2.2612298954
 C         -0.0976001196       -1.5209772396        1.1518609246
 C         -1.0327698325       -2.6513880557        0.6985413294
 C         -2.0828815858       -2.2265388191       -0.3311052736
 N         -2.6991645908       -0.9581506047        0.0195435155
 C         -2.4443824793       -0.4794496959        1.3567921803
 C         -0.9491405724       -0.3290883880        1.6584978773
 S         -2.9444144665        0.1347354307       -1.1735841707
 O         -3.3994100755       -0.6059487984       -2.3319183411
 O         -3.8549087447        1.1343520088       -0.6529302314
 C         -1.4135819271        0.9738837865       -1.6274774851
 N          0.7663468353       -1.0832849674        0.0553178133
 C          0.9541864519       -1.6992193618       -1.1483408728
 N          1.8051133836       -1.1099314122       -1.9314550061
 C          2.2513490500       -0.0247664014       -1.2183336507
 C          1.6193335372       -0.0032104012        0.0492538561
 C          1.9939857437        1.0100443883        0.9433755418
 C          1.7262735332        1.4356011394        2.2725644956
 C          2.4963383798        2.5384920260        2.5015210537
 N          3.2330644927        2.8338494380        1.3952050977
 C          2.9601306742        1.9213387390        0.4274216816
 N          3.5376508507        1.9168339754       -0.7776244871
 C          3.1868329254        0.9455161900       -1.5905086189
 H         -0.4580996777       -3.4864911860        0.3004567079
 H         -1.5461092417       -3.0104808158        1.5898969298
 H         -1.6684674280       -2.1215274397       -1.3351717397
 H         -2.8669265500       -2.9902653446       -0.3848491499
 H         -2.9534114947        0.4806133721        1.4390001434
 H         -2.9133512905       -1.1768380840        2.0549430283
 H         -0.8412815201       -0.2374706064        2.7381682427
 H         -0.5834796099        0.5910504274        1.2074502557
 H          0.4600848565       -2.6037464660       -1.4347034781
 H          1.0607905721        0.9902958066        2.9813156130
 H          2.5683359994        3.1358900258        3.3882378636
 H          3.6568312105        0.9234381906       -2.5618691714
 H          3.8863115706        3.5924994310        1.2959625577
 H          1.3843531719       -2.9111475807        1.8957572698
 H          1.5224127433       -1.2918351666        2.5748345142
 H          0.2308659879       -2.3704822530        3.1182315204
 H         -0.6793162019        0.2331186411       -1.9116087710
 H         -1.0909718338        1.5783684969       -0.7920857738
 H         -1.6640931349        1.5974664435       -2.4746713563
  42
        -67.90736739
 C          1.0592685352       -2.2714517997        2.1261078623
 C          0.0135927746       -1.5755314817        1.2491222215
 C         -1.0777301905       -2.5923976177        0.8702384819
 C         -2.3601136396       -1.8965099159        0.3764630321
 N         -2.0440866698       -0.5522405147       -0.0672760512
 C         -1.6247265132        0.3264219249        1.0126848953
 C         -0.6967796955       -0.4226082412        1.9778375550
 S         -3.1003135523        0.1146995674       -1.1601815580
 O         -4.4683828988       -0.2835701923       -0.8623834742
 O         -2.8636140892        1.5425326285       -1.1750205109
 C         -2.6099205568       -0.5841894284       -2.7329295748
 N          0.6824471833       -1.0373050315        0.0679485894
 C          0.4320276983       -1.3526131092       -1.2323957006
 N          1.0762519581       -0.6329395868       -2.0996411388
 C          1.8175502517        0.2451048820       -1.3479469253
 C          1.5825196537        0.0006119460        0.0285805160
 C          2.2844156819        0.7865648924        0.9549844767
 C          2.4452300040        0.9284272404        2.3614121613
 C          3.3346775095        1.9431214192        2.5639686649
 N          3.7461363086        2.4500759937        1.3696195361
 C          3.1334977236        1.7679756490        0.3672802843
 N          3.3412268328        2.0121363177       -0.9297741760
 C          2.6890361245        1.2484974826       -1.7788146713
 H         -0.6969022006       -3.2928437172        0.1303228785
 H         -1.3134957982       -3.1656278114        1.7658937966
 H         -2.8030530719       -2.4218537166       -0.4676012697
 H         -3.1168845421       -1.8570641514        1.1700421638
 H         -1.1179740795        1.1709352188        0.5405579132
 H         -2.4978178710        0.7227468196        1.5484221626
 H         -1.2743245882       -0.8481366524        2.7973680598
 H          0.0151771080        0.2859578281        2.3904519675
 H         -0.2292116942       -2.1386633594       -1.5284198528
 H          1.9851673602        0.3574421289        3.1418840758
 H          3.7045710541        2.3382752711        3.4888983464
 H          2.8575673932        1.4300697225       -2.8295483767
 H          4.4009495033        3.2008405715        1.2298422500
 H          1.3628491873       -3.2068392314        1.6626234390
 H          1.9413405662       -1.6509148002        2.2422315622
 H          0.6466876190       -2.4841061886        3.1072755825
 H         -3.1550573263       -0.0427957453       -3.4948712675
 H         -2.8735613735       -1.6319028585       -2.7465107250
 H         -1.5437945453       -0.4287464982       -2.8337270890
  42
        -67.90733481
 C          0.1247767600       -0.2319101592        2.1708743770
 C         -0.0848563149       -0.4720307840        0.6727188004
 C         -1.0306162815       -1.6749229378        0.5057682769
 C         -1.7661591578       -1.6061716894       -0.8283364675
 N         -2.7073773215       -0.4942945274       -0.8247593958
 C         -2.2329884896        0.6807054317       -0.0920244147
 C         -0.7113269490        0.7433323417       -0.0496942725
 S         -4.2506613562       -0.9242282150       -0.3361884639
 O         -4.5698133089       -2.2032228369       -0.9347065949
 O         -4.3769056428       -0.8812314440        1.1145614226
 C         -5.2764979292        0.3475568129       -1.0642895796
 N          1.2170140514       -0.7298374576        0.0556890440
 C          1.6006340665       -1.8324152256       -0.6511382570
 N          2.8104860906       -1.7842017923       -1.1155852711
 C          3.2964965529       -0.5654466682       -0.7122044828
 C          2.2986434283        0.1219668694        0.0230635280
 C          2.6137933663        1.4047995265        0.4976398259
 C          2.0236268345        2.4720689821        1.2291681728
 C          2.9571224942        3.4629887978        1.3209718476
 N          4.1022056579        3.0860141680        0.6902427349
 C          3.9322582313        1.8406420158        0.1760518538
 N          4.8769841737        1.1882136666       -0.5076084642
 C          4.5560072793       -0.0073240013       -0.9489511927
 H         -0.4967938680       -2.6155693477        0.6223408986
 H         -1.7854006944       -1.6358239846        1.2947191020
 H         -1.0731282355       -1.4698508360       -1.6628007868
 H         -2.3523847343       -2.5082033698       -1.0062095602
 H         -2.6149321138        1.5636323485       -0.6070016665
 H         -2.6407291037        0.6607476893        0.9254969013
 H         -0.4206426733        1.6677563072        0.4425634507
 H         -0.3353717704        0.7795132736       -1.0733631447
 H          0.9634086491       -2.6744755659       -0.8241329525
 H          1.0397154465        2.5246329259        1.6473324584
 H          2.8780130681        4.4190182492        1.7986367543
 H          5.3081580974       -0.5448542765       -1.5061642653
 H          4.9470516989        3.6258005466        0.6072397795
 H          0.3792151877       -1.1699372267        2.6595837217
 H          0.9304087854        0.4713175051        2.3499352773
 H         -0.7896466918        0.1519978737        2.6141227118
 H         -4.9498417856        0.4589490139       -2.0883418588
 H         -5.1523040806        1.2556419268       -0.4917119734
 H         -6.2995275690       -0.0024074895       -1.0170671818
  42
        -67.90712315
 C          0.1856100098       -1.0440733774       -2.0515939500
 C         -0.0005221461       -0.9628932490       -0.5311531891
 C         -0.7287447416        0.3392607208       -0.1203056530
 C         -1.6586395204        0.1157229263        1.0687919839
 N         -2.6990762250       -0.8510726608        0.7634195573
 C         -2.3225934845       -1.8846228645       -0.1883241922
 C         -0.8315795641       -2.1682117115       -0.0485264855
 S         -4.2342758606       -0.2800039735        0.6361227950
 O         -5.1050379573       -1.4297086071        0.5064433351
 O         -4.4744734693        0.5784413692        1.7779850251
 C         -4.3810015974        0.7207577219       -0.8566168606
 N          1.3319254763       -0.9882888638        0.0712681103
 C          1.8978185345       -1.9954400825        0.7978438773
 N          3.1180875879       -1.7705058585        1.1762338632
 C          3.4250095077       -0.5329749697        0.6664947890
 C          2.3108047559       -0.0291010551       -0.0489779864
 C          2.4522422542        1.2163999414       -0.6784817568
 C          1.7079227305        2.1087932628       -1.4981204054
 C          2.5143072651        3.1776969930       -1.7606068019
 N          3.7222477112        3.0130624999       -1.1547251624
 C          3.7241058118        1.8288199368       -0.4894597745
 N          4.7701682334        1.3635279269        0.2001552035
 C          4.6178545576        0.1889006783        0.7707092494
 H         -0.0029547778        1.1015920480        0.1547907771
 H         -1.3071975037        0.7059703515       -0.9672500196
 H         -1.0885033457       -0.2428782281        1.9318976907
 H         -2.1590036336        1.0370033871        1.3671766839
 H         -2.9151408953       -2.7696129707        0.0483042600
 H         -2.5613270435       -1.5834518595       -1.2139881040
 H         -0.5756766131       -3.0558109289       -0.6256099976
 H         -0.6419950860       -2.3689102936        1.0043336504
 H          1.3917656410       -2.9084810103        1.0327294450
 H          0.7075663458        1.9904516802       -1.8587162711
 H          2.3046560293        4.0514874362       -2.3445077477
 H          5.4592506556       -0.2002950660        1.3238385620
 H          4.4999096722        3.6503064493       -1.1868908210
 H          0.7374391436       -1.9465165781       -2.3058173137
 H         -0.7768685515       -1.0754260053       -2.5520549865
 H          0.7478583296       -0.1906042188       -2.4169317519
 H         -5.4083102870        1.0562397415       -0.8906894112
 H         -4.1575231750        0.0959686345       -1.7093676205
 H         -3.7066092237        1.5604152444       -0.7655363385
  42
        -67.90697530
 C          0.4676682885       -1.0854643815        2.2652293834
 C         -0.0170035618       -0.7946236215        0.8400107607
 C         -1.0373452179       -1.8687329698        0.4128641348
 C         -2.4317967263       -1.4887428117        0.9028609534
 N         -2.9042639920       -0.2844098307        0.2375056356
 C         -1.8557173498        0.6036529986       -0.2368673378
 C         -0.6927023973        0.5938916944        0.7473295926
 S         -4.1965137028       -0.4530680437       -0.7653393915
 O         -5.1937461460       -1.2288429145       -0.0566637229
 O         -4.5955345122        0.8772368133       -1.1740651642
 C         -3.7046758534       -1.3803075311       -2.2320228501
 N          1.1559162967       -0.8261610295       -0.0339146894
 C          1.4670189779       -1.7638491562       -0.9756073446
 N          2.5990169489       -1.5711448316       -1.5790923670
 C          3.1163083900       -0.4350592346       -1.0075095218
 C          2.2229920938        0.0422416804       -0.0165493067
 C          2.6039160087        1.1821838258        0.7065093955
 C          2.1271901715        2.0066024775        1.7625591514
 C          3.0652474308        2.9761702028        1.9669777321
 N          4.1046481033        2.8125119054        1.1029010673
 C          3.8617958643        1.7284190017        0.3216090768
 N          4.6981254325        1.2893455992       -0.6237897593
 C          4.3248246461        0.2130383608       -1.2799070715
 H         -1.0732318164       -1.9455132435       -0.6728146930
 H         -0.7563722370       -2.8378807751        0.8228263314
 H         -3.1590321929       -2.2756061731        0.7031426689
 H         -2.4279218356       -1.3083222586        1.9812892721
 H         -1.5021832076        0.3119634968       -1.2337617213
 H         -2.2956783553        1.5987613999       -0.3152115616
 H         -1.0695474640        0.8798963849        1.7278239222
 H          0.0297832129        1.3402016163        0.4244077954
 H          0.8456446714       -2.6058915225       -1.1983985133
 H          1.2132161237        1.9094159431        2.3107842756
 H          3.0597252687        3.7779699436        2.6779917984
 H          4.9968077297       -0.1550495677       -2.0403362869
 H          4.9277502193        3.3873893714        1.0405483156
 H          0.9675982928       -2.0513611006        2.2944549903
 H          1.1735237253       -0.3292051014        2.5935802599
 H         -0.3712800494       -1.1068824127        2.9533282103
 H         -3.3511746221       -2.3520469668       -1.9171416268
 H         -2.9491102579       -0.8121123500       -2.7556795468
 H         -4.5958910214       -1.4749078793       -2.8367708048
  42
        -67.90697099
 C          0.6118802210       -3.1227345848       -1.5354784615
 C         -0.2755259597       -2.0376980910       -0.9075909616
 C         -0.8977805031       -1.1841197019       -2.0114587293
 C         -1.7165662339       -0.0221278375       -1.4398859083
 N         -2.3958824781       -0.4004121769       -0.2132805650
 C         -2.7132453632       -1.8103129855       -0.1422896361
 C         -1.4511053180       -2.6892778374       -0.1367747567
 S         -1.9426492821        0.3065047718        1.2197583988
 O         -1.5584965811       -0.6949640800        2.1969332491
 O         -0.9825391025        1.3609858322        0.9667135104
 C         -3.4798445994        1.0567144098        1.7582362663
 N          0.5852899999       -1.2604800153       -0.0009547557
 C          0.9681837089       -1.7899278143        1.2003749055
 N          1.7727670315       -1.0564839558        1.8971051352
 C          1.9760038321        0.0571710442        1.1236756972
 C          1.2657028405       -0.0600304932       -0.1028347265
 C          1.4651233104        0.9812528817       -1.0334229457
 C          1.1127933276        1.3576968074       -2.3629755928
 C          1.6998662367        2.5599127536       -2.6249572818
 N          2.4088116237        2.9743295763       -1.5428178477
 C          2.2967801345        2.0418858496       -0.5621322534
 N          2.9157364950        2.1678297960        0.6143451660
 C          2.7578595112        1.1653378058        1.4476147656
 H         -0.1239898872       -0.8248549142       -2.6801977050
 H         -1.5510847228       -1.8408855416       -2.5866565449
 H         -1.0893517952        0.8340298228       -1.1935291613
 H         -2.4722090021        0.2959395995       -2.1649739108
 H         -3.2769785972       -1.9720083640        0.7750114680
 H         -3.3529003752       -2.0355872274       -0.9975719912
 H         -1.6805095602       -3.6466093131       -0.6036202084
 H         -1.1779669904       -2.8741147755        0.8980034844
 H          0.6552604073       -2.7555748933        1.5414108214
 H          0.5109823042        0.8363187811       -3.0753043883
 H          1.6590287922        3.1463319055       -3.5207437444
 H          3.2582307186        1.2281950014        2.4022718390
 H          2.9437233295        3.8218544696       -1.4569354715
 H          0.0526155755       -3.6878414990       -2.2747441124
 H          1.4697253387       -2.6635200686       -2.0222687039
 H          0.9765624276       -3.8042428786       -0.7712013340
 H         -3.3029196154        1.5055647415        2.7264256715
 H         -4.2257149623        0.2772940644        1.8219155936
 H         -3.7418334586        1.8032784083        1.0223829802
  42
        -67.90670446
 C          0.1102493012       -2.5855759454       -1.5387851284
 C         -0.0367183677       -1.4822470159       -0.4865223759
 C         -0.6801237341       -0.2368303298       -1.0948653832
 C         -2.1588666915       -0.4438760546       -1.4340069201
 N         -2.9262125714       -0.9381441608       -0.3155571609
 C         -2.3712423397       -2.1011715600        0.3349267293
 C         -0.8975112377       -1.9305698598        0.7130470671
 S         -3.7878221271        0.1337719525        0.5807907361
 O         -4.4552121324        1.0202931787       -0.3510568001
 O         -4.6474244035       -0.6407316219        1.4529400516
 C         -2.7103027996        1.1391531004        1.6187270254
 N          1.3090346972       -1.1735371600        0.0227055814
 C          2.0031512294       -2.1359447442        0.7033253948
 N          3.1765273655       -1.7793388010        1.1128385308
 C          3.3125088173       -0.4847517250        0.6842176711
 C          2.1439185925       -0.0728377543       -0.0172917940
 C          2.1557118479        1.2410211021       -0.5316120384
 C          1.3435600875        2.1410386372       -1.2814869711
 C          2.0361537646        3.3082814831       -1.4160106903
 N          3.2407692753        3.2087437687       -0.7958412764
 C          3.3527240533        1.9704931909       -0.2517073031
 N          4.4400211558        1.5774449413        0.4162548511
 C          4.4150280359        0.3492469279        0.8785737127
 H         -0.5862027216        0.5772977445       -0.3777869097
 H         -0.1543805493        0.0214649338       -2.0124159594
 H         -2.6209040283        0.4964150946       -1.7351021938
 H         -2.2667854455       -1.1547259491       -2.2574055947
 H         -2.9801503465       -2.2821025427        1.2207411420
 H         -2.4879414545       -2.9522448178       -0.3413668611
 H         -0.5445499794       -2.8819618684        1.1074122375
 H         -0.7989970835       -1.1832702825        1.5021484781
 H          1.6073702576       -3.1140908060        0.8843232151
 H          0.3712535936        1.9865103410       -1.6950011620
 H          1.7420387712        4.2080211735       -1.9184597852
 H          5.2832084413        0.0021519027        1.4177162870
 H          3.9533876385        3.9167228987       -0.7426375564
 H          0.5206838297       -3.4909460679       -1.1014156388
 H         -0.8513826286       -2.8235920454       -1.9794379676
 H          0.7807394519       -2.2528588395       -2.3279983451
 H         -3.3666257177        1.8018524840        2.1665846184
 H         -2.0471313092        1.7043286446        0.9797302576
 H         -2.1803414876        0.4846857924        2.2955740382
  42
        -67.90656942
 C          0.6833586898       -3.3226924749       -1.6869067141
 C         -0.1898700920       -2.2746705330       -0.9877663345
 C         -0.9041149076       -1.4193724149       -2.0317561879
 C         -1.9680045137       -0.5014760044       -1.3939329411
 N         -1.9704585591       -0.5872835967        0.0469523528
 C         -2.0540426500       -1.8926727561        0.6651904709
 C         -1.3086392136       -2.9441109744       -0.1671742978
 S         -1.7375374771        0.7166347411        1.0032847596
 O         -0.8968073521        0.3582740299        2.1286381237
 O         -1.2959009266        1.8273157050        0.1892132328
 C         -3.3756793934        1.0989236159        1.6358419674
 N          0.6748830441       -1.4916547280       -0.0970581179
 C          1.1226547810       -2.0620886596        1.0607387543
 N          1.8665552066       -1.3034782156        1.7983609414
 C          1.9324386752       -0.1200857724        1.1109347122
 C          1.2037092580       -0.2158780319       -0.1087655423
 C          1.2392903381        0.9173990558       -0.9461551942
 C          0.7954890626        1.3643785665       -2.2242574255
 C          1.2047918286        2.6549422517       -2.3798940435
 N          1.8954685202        3.0574333781       -1.2818763743
 C          1.9395923109        2.0321467401       -0.3933487868
 N          2.5800806903        2.1298855327        0.7741340637
 C          2.5822792594        1.0447772835        1.5146030511
 H         -0.1648963546       -0.8578483392       -2.5887962976
 H         -1.3900768918       -2.0999381254       -2.7302875021
 H         -1.7729139233        0.5465047596       -1.6210006388
 H         -2.9646309343       -0.7661658662       -1.7625222473
 H         -1.6019922742       -1.7830015268        1.6537072182
 H         -3.1038546392       -2.1842745948        0.7857445764
 H         -1.9943340291       -3.4055694463       -0.8770479183
 H         -0.9295365487       -3.7283629980        0.4840164779
 H          0.8899854538       -3.0707559058        1.3353698351
 H          0.2467911131        0.8389115864       -2.9764167139
 H          1.0518217066        3.3127164883       -3.2119082400
 H          3.1031178403        1.0891096460        2.4593789879
 H          2.2970610620        3.9647610532       -1.1175187693
 H          1.2114079005       -3.9292120267       -0.9561146293
 H          0.0694735766       -3.9732126153       -2.3018645765
 H          1.4191206010       -2.8319467913       -2.3195473379
 H         -4.0100678367        1.3055328320        0.7855896389
 H         -3.2802818071        1.9688902033        2.2710031482
 H         -3.7195600735        0.2445355541        2.2014064713
  42
        -67.90646704
 C          0.6459198633       -1.4428808884       -2.3799276290
 C          0.0071131433       -1.1406131474       -1.0203214084
 C         -0.8433970284        0.1547238960       -1.0407868105
 C         -2.3303546545       -0.1456905767       -1.2069046963
 N         -2.8493305667       -0.9656675757       -0.1261065024
 C         -1.9216309199       -1.9446631620        0.4218009511
 C         -0.9006961234       -2.3243688281       -0.6433906041
 S         -3.8101820858       -0.2150643610        0.9760444861
 O         -4.8073421106        0.5361417670        0.2412205493
 O         -4.3122550809       -1.2407883487        1.8657808328
 C         -2.8351476412        0.9553985990        1.9422141534
 N          1.0773650897       -0.9617958266       -0.0376254422
 C          1.3069058836       -1.6943890164        1.0910334652
 N          2.3066915810       -1.2848913841        1.8087389058
 C          2.8046167768       -0.1971006218        1.1354950204
 C          2.0387532799        0.0242657316       -0.0363496895
 C          2.4069796871        1.1017415293       -0.8565330857
 C          2.0177323704        1.7283226732       -2.0718555548
 C          2.8717133224        2.7721163542       -2.2787123188
 N          3.7771026617        2.8432307987       -1.2653189892
 C          3.5284100698        1.8424600770       -0.3817414803
 N          4.2486947927        1.6362934310        0.7246405220
 C          3.8860962046        0.6207127936        1.4758798494
 H         -0.6851385555        0.6968448054       -0.1072261306
 H         -0.5313464748        0.8021527321       -1.8557919494
 H         -2.9231715254        0.7687681087       -1.2151548541
 H         -2.5091371213       -0.6658957731       -2.1519986390
 H         -1.4195291503       -1.5442036634        1.3105596145
 H         -2.5110221456       -2.8088671993        0.7346045264
 H         -1.4399954392       -2.6388842737       -1.5354986233
 H         -0.3067621141       -3.1735377940       -0.3117620834
 H          0.7193543301       -2.5414546950        1.3775418655
 H          1.2188980032        1.4576363688       -2.7301702615
 H          2.8924325951        3.4733572465       -3.0888354215
 H          4.4605926496        0.4422447424        2.3721648776
 H          4.5216815354        3.5132200037       -1.1718103816
 H          1.0693696784       -2.4445106373       -2.3739744795
 H         -0.1039157176       -1.3853374671       -3.1628684773
 H          1.4430853899       -0.7412931722       -2.6012233926
 H         -3.4999130883        1.3359303856        2.7053237973
 H         -2.5132672815        1.7490626242        1.2828638476
 H         -2.0057123428        0.4280861883        2.3922791709
  42
        -67.90645830
 C         -0.5138352889       -0.1098132674        1.2855311822
 C         -0.1573576334       -0.8173752007       -0.0268403088
 C         -0.9080290752       -2.1610305264       -0.1228375281
 C         -2.2581307479       -2.0174704875       -0.8560149557
 N         -2.8346724573       -0.6977479377       -0.7668328173
 C         -2.0027753575        0.3774316850       -1.2765180939
 C         -0.5229782773       -0.0107499723       -1.2834575081
 S         -3.9014072221       -0.4032934204        0.4612769092
 O         -3.8152252293       -1.4483042187        1.4642393009
 O         -3.7296706691        0.9539618615        0.9477571083
 C         -5.4900429696       -0.5200601044       -0.3570046662
 N          1.2943708405       -1.0171355988       -0.0121586174
 C          1.9732737551       -2.1952289693        0.0995916370
 N          3.2648891675       -2.0780328011        0.1093483484
 C          3.4980789681       -0.7284226324        0.0167686973
 C          2.2615038166       -0.0373138339       -0.0390034287
 C          2.3062805373        1.3655851260       -0.0798262148
 C          1.4269833026        2.4848621261       -0.0878750101
 C          2.2039925905        3.6063900133       -0.1206847732
 N          3.5205223485        3.2633488020       -0.1353477887
 C          3.6232338276        1.9094473343       -0.1014650571
 N          4.7888871177        1.2568990873       -0.0782562091
 C          4.7221683423       -0.0539938628       -0.0132715166
 H         -0.3201679119       -2.8825262566       -0.6874309854
 H         -1.0756634890       -2.5526947529        0.8805406185
 H         -2.1391799966       -2.2455489605       -1.9180016856
 H         -2.9796532503       -2.7092631490       -0.4250686932
 H         -2.3229095289        0.6197841301       -2.2952253850
 H         -2.1813394113        1.2459931874       -0.6407558079
 H          0.0834306087        0.8860197233       -1.3664412989
 H         -0.3071954560       -0.6357810026       -2.1520834273
 H          1.4914488819       -3.1463887909        0.1904890484
 H          0.3559419052        2.4893367301       -0.0514011596
 H          1.8989886886        4.6336123325       -0.1333785594
 H          5.6573371847       -0.5918071191        0.0198670847
 H          4.3047278685        3.8933798775       -0.1519605358
 H         -0.0202693685        0.8542794099        1.3564707772
 H         -1.5851705163        0.0359490907        1.3842563084
 H         -0.1812581010       -0.7220164449        2.1226462478
 H         -5.5579292280       -1.5034245051       -0.7998756076
 H         -5.5201476708        0.2599865759       -1.1041208600
 H         -6.2577958059       -0.3750967077        0.3910252549
  42
        -67.90645133
 C          0.6755768576       -2.8803022405        1.9435997324
 C          0.0517624870       -1.8804986795        0.9617071794
 C         -1.0149239930       -2.5704698974        0.0867006573
 C         -1.6956202694       -1.5587827224       -0.8320909794
 N         -2.3235796919       -0.5399515738       -0.0182705945
 C         -1.3861216654        0.1930180596        0.8078857389
 C         -0.6785648211       -0.7872663436        1.7418235868
 S         -3.5186479942        0.3427812918       -0.7256033819
 O         -4.4057558593       -0.5904230815       -1.3883010401
 O         -4.1169916150        1.1595073501        0.3095476590
 C         -2.7886912962        1.4265774863       -1.9633503648
 N          1.1335026777       -1.3599557174        0.1151540503
 C          1.7072807032       -2.1863223406       -0.8126914408
 N          2.7022472733       -1.6772531492       -1.4626946595
 C          2.8451985669       -0.4178223991       -0.9427320123
 C          1.8708541315       -0.1900935259        0.0705592408
 C          1.9217656792        1.0693255414        0.7066489175
 C          1.2615120727        1.8196766041        1.7229586630
 C          1.8862755910        3.0282684425        1.8175544920
 N          2.9046180260        3.0965032757        0.9209540965
 C          2.9585460046        1.9301139657        0.2292188000
 N          3.8626903392        1.7067161898       -0.7273319039
 C          3.7997810827        0.5324708684       -1.3099970980
 H         -0.5994355472       -3.3783300904       -0.5104358109
 H         -1.7654054679       -2.9959266205        0.7516424853
 H         -0.9553424745       -1.1174387791       -1.5155227699
 H         -2.4872950139       -2.0280036590       -1.4159781200
 H         -0.6549197256        0.7222670214        0.1840885147
 H         -1.9711731363        0.9200659049        1.3714869297
 H         -1.4315014426       -1.2705088310        2.3637226952
 H          0.0195654905       -0.2771179511        2.3971792767
 H          1.3685024888       -3.1863572481       -0.9875828326
 H          0.4199423226        1.5483046741        2.3218642218
 H          1.6648958206        3.8470918881        2.4723369262
 H          4.5190448663        0.3226975117       -2.0866980622
 H          3.5336657552        3.8684871487        0.7777630294
 H          1.1586441101       -3.6943442231        1.4100937389
 H          1.4213712308       -2.3817505730        2.5585093658
 H         -0.0892227646       -3.2953847540        2.5922717360
 H         -2.0982869757        2.0893984056       -1.4606179975
 H         -3.6040845130        1.9825068382       -2.4047457221
 H         -2.3011080785        0.8066025253       -2.7026456599
  42
        -67.90631850
 C          0.2761738197       -0.8796301614       -2.2203971936
 C         -0.0491006919       -0.7096795404       -0.7322211463
 C         -0.6923451065        0.6636840600       -0.4170380904
 C         -2.2137477882        0.5919850117       -0.3998004993
 N         -2.6544868177       -0.2763129685        0.6799658602
 C         -1.8115983557       -1.4355334598        0.9299325718
 C         -1.0369235761       -1.8196046278       -0.3265698228
 S         -4.2784316464       -0.5009353353        0.7949633423
 O         -4.5259705588       -1.2663505717        1.9996825394
 O         -4.8971502826        0.8066149492        0.7306914675
 C         -4.8447242830       -1.4708477973       -0.6159775697
 N          1.1983474276       -0.8045743791        0.0261618684
 C          1.5139219774       -1.6995308107        1.0069751718
 N          2.6821368323       -1.5267160639        1.5430711248
 C          3.2099744545       -0.4362167466        0.8979468751
 C          2.2829557188        0.0389111450       -0.0632302729
 C          2.6539945471        1.1611321670       -0.8199865088
 C          2.1449349241        1.9964385021       -1.8520079741
 C          3.0945112753        2.9409728678       -2.1118284874
 N          4.1745442068        2.7517243810       -1.3059891269
 C          3.9445654376        1.6782696162       -0.5064771597
 N          4.8197033819        1.2295920398        0.3982213060
 C          4.4504251462        0.1773182670        1.0938547394
 H         -0.3514557982        1.0032952666        0.5618923683
 H         -0.3880345166        1.4054965343       -1.1501944787
 H         -2.6491621611        1.5738038949       -0.2095342801
 H         -2.5809077436        0.2384065487       -1.3701998008
 H         -1.1246442008       -1.1900423336        1.7468638480
 H         -2.4608295951       -2.2403015846        1.2760161196
 H         -1.7396843947       -1.9585926278       -1.1476372105
 H         -0.5180939643       -2.7652565984       -0.1851596375
 H          0.8622491581       -2.4864302032        1.3243945815
 H          1.2036131881        1.9279853340       -2.3563021311
 H          3.0702542522        3.7408638549       -2.8246067922
 H          5.1477543076       -0.1963863949        1.8282993356
 H          5.0142542680        3.3053320175       -1.2882954355
 H         -0.5807407718       -0.5962726179       -2.8237772408
 H          1.1250871183       -0.2686518042       -2.5068410623
 H          0.5243163103       -1.9181486499       -2.4267216905
 H         -5.8967672868       -1.6552512708       -0.4484975471
 H         -4.2914217580       -2.3992923792       -0.6331826979
 H         -4.6992925745       -0.8818786778       -1.5101328182
  42
        -67.90629204
 C          0.6652282357       -3.0364865246        1.8013068080
 C          0.0181192585       -1.9750170652        0.9035859827
 C         -1.0751867325       -2.5997629811        0.0161686296
 C         -1.7693598831       -1.5333929308       -0.8253786506
 N         -2.3828695584       -0.5452090084        0.0476413856
 C         -1.4042125868        0.1073707303        0.9053916962
 C         -0.6973287403       -0.9354484613        1.7639266086
 S         -3.2882207415        0.5668812559       -0.8197294370
 O         -3.6614510389        1.6288858896        0.0900501972
 O         -2.5653085515        1.0002885220       -2.0059066258
 C         -4.7564393501       -0.3457635821       -1.2907900848
 N          1.0767844392       -1.3983352164        0.0647397446
 C          1.6039055878       -2.1475235091       -0.9508618692
 N          2.5678781560       -1.5875339266       -1.6062443879
 C          2.7344261081       -0.3708000090       -0.9987992172
 C          1.8101830903       -0.2260716118        0.0749327855
 C          1.8962081555        0.9767731198        0.8083475412
 C          1.2930370810        1.6380137025        1.9172237150
 C          1.9198648631        2.8385673679        2.0752221142
 N          2.8898206415        2.9835168947        1.1349227854
 C          2.9051286341        1.8780055177        0.3476147557
 N          3.7589799537        1.7360650095       -0.6689521247
 C          3.6679371048        0.6099524839       -1.3373765467
 H         -0.6834396554       -3.3730710173       -0.6397390473
 H         -1.8126101247       -3.0564868314        0.6748174268
 H         -1.0590572969       -1.0462066629       -1.5099154553
 H         -2.5617121599       -1.9819409269       -1.4223084007
 H         -0.6885914052        0.6720099470        0.2920106245
 H         -1.9562920730        0.8194991790        1.5196915234
 H         -1.4478351477       -1.4535157542        2.3600038411
 H          0.0075480258       -0.4690160400        2.4433972161
 H          1.2586877556       -3.1330042507       -1.1853783800
 H          0.4837473960        1.3158730946        2.5353221340
 H          1.7333249836        3.6011670247        2.8044671229
 H          4.3475822211        0.4655438812       -2.1631998922
 H          3.5050015790        3.7705455542        1.0165071196
 H         -0.0832760454       -3.4942683357        2.4398682422
 H          1.1356850473       -3.8113289423        1.2022421675
 H          1.4262340780       -2.5781231883        2.4285648568
 H         -4.5519332151       -0.8871654839       -2.2035536505
 H         -5.5389506012        0.3860188223       -1.4444941048
 H         -4.9964545324       -1.0005838996       -0.4649668860
