42
Energy -36.452944977122606 kcal/mol Converged!
  C  -14.908669336  29.214128785  -2.711301109
  C  -14.565175708  29.834746265  -1.351611391
  C  -13.334232407  30.768767940  -1.491561683
  C  -13.681452144  31.976968745  -2.375358823
  N  -14.806131015  32.727843945  -1.758745366
  C  -16.036009054  31.940260862  -1.478336425
  C  -15.720073571  30.640428478  -0.710353770
  S  -14.795012676  34.410137246  -1.773166717
  O  -15.207688587  34.893296686  -0.446255497
  O  -13.426686006  34.804836888  -2.158857019
  C  -15.922999231  34.902389497  -2.954379446
  N  -14.207841319  28.710651031  -0.393273479
  C  -13.003752850  28.623486674   0.359891027
  N  -12.857625156  27.432046325   0.964944502
  C  -13.989947216  26.684252029   0.614302462
  C  -14.864061242  27.482874019  -0.207877033
  C  -16.094129562  26.909458933  -0.605308390
  C  -17.280182928  27.298819746  -1.298355053
  C  -18.113662800  26.187391703  -1.370953551
  N  -17.504944348  25.098751416  -0.732042946
  C  -16.272557298  25.523722265  -0.233687868
  N  -15.401063903  24.733359854   0.506473827
  C  -14.286225073  25.325645119   0.932614559
  H  -13.037807054  31.166563901  -0.488267148
  H  -12.474564407  30.222287154  -1.946108250
  H  -12.779383011  32.646078135  -2.441426111
  H  -13.967622913  31.645116921  -3.408532173
  H  -16.723009404  32.561871927  -0.843386470
  H  -16.548470312  31.691309541  -2.446844772
  H  -16.648837586  30.024903181  -0.667844635
  H  -15.428060875  30.905376277   0.338132641
  H  -12.291886368  29.441146024   0.450682759
  H  -17.506194107  28.273858757  -1.689407659
  H  -19.089476989  26.097840113  -1.830904001
  H  -13.577251556  24.732234935   1.530039786
  H  -17.890092234  24.165865095  -0.639062649
  H  -15.477893358  28.264578609  -2.623970550
  H  -15.530363785  29.922749200  -3.307984212
  H  -13.978319702  28.989113805  -3.284454096
  H  -15.877809647  36.012966486  -3.143382131
  H  -16.990431271  34.686243378  -2.677698861
  H  -15.750401991  34.416632109  -3.954382280
