42
Energy -37.88482239980061 kcal/mol Converged!
  C  -14.679020112  29.423356543  -2.952313009
  C  -14.386776544  29.873211164  -1.517422235
  C  -13.286882189  30.967733397  -1.502972046
  C  -13.794080654  32.280807410  -2.124460508
  N  -15.032720920  32.741658815  -1.431401441
  C  -16.126847556  31.726984222  -1.371144412
  C  -15.606831717  30.425368866  -0.743637881
  S  -15.504488612  34.362631249  -1.682478572
  O  -16.567956631  34.633606272  -0.703474973
  O  -14.288584510  35.174808848  -1.524763185
  C  -16.112135314  34.483579537  -3.271825584
  N  -13.891850095  28.650974545  -0.769584733
  C  -12.594212601  28.481314114  -0.215996596
  N  -12.414207543  27.253882864   0.303538783
  C  -13.617124210  26.567527127   0.087878010
  C  -14.556788761  27.426728085  -0.588210016
  C  -15.833609686  26.896970809  -0.894184934
  C  -17.050680940  27.312448141  -1.515541504
  C  -17.935600194  26.238981608  -1.486775806
  N  -17.325926833  25.143405385  -0.863658658
  C  -16.035277602  25.522626821  -0.490147755
  N  -15.128911013  24.692745490   0.158063577
  C  -13.939952492  25.223419395   0.439606275
  H  -12.986467474  31.184456841  -0.446735385
  H  -12.393311069  30.632803072  -2.083855482
  H  -13.003214777  33.068072660  -1.974461525
  H  -13.969455597  32.139165547  -3.223562417
  H  -16.941369247  32.139616613  -0.712928182
  H  -16.541956365  31.514116572  -2.391639617
  H  -16.437012848  29.684675180  -0.711897369
  H  -15.294294599  30.634229390   0.312638336
  H  -11.837508930  29.262537203  -0.211845828
  H  -17.272541742  28.273390508  -1.941887008
  H  -18.948411518  26.183040020  -1.865006157
  H  -13.198862027  24.595042456   0.956015259
  H  -17.742146647  24.232012681  -0.709010871
  H  -15.444245270  28.618489893  -2.988462159
  H  -15.053166751  30.279715958  -3.559783745
  H  -13.747337336  29.037043663  -3.429283110
  H  -16.429840014  35.535493902  -3.529158424
  H  -17.023329236  33.848336054  -3.449299338
  H  -15.364761823  34.198891080  -4.062129778
